*SPEF "ieee 1481-1999"
*DESIGN "pe"
*DATE "16:54:27 Saturday August 08, 2026"
*VENDOR "The OpenROAD Project"
*PROGRAM "OpenROAD"
*VERSION "2.0-12381-g01bba3695"
*DESIGN_FLOW "NAME_SCOPE LOCAL" "PIN_CAP NONE"
*DIVIDER /
*DELIMITER :
*BUS_DELIMITER []
*T_UNIT 1 NS
*C_UNIT 1 PF
*R_UNIT 1 OHM
*L_UNIT 1 HENRY

*NAME_MAP
*1 _000_[0]
*2 _000_[10]
*3 _000_[11]
*4 _000_[12]
*5 _000_[13]
*6 _000_[14]
*7 _000_[15]
*8 _000_[16]
*9 _000_[17]
*10 _000_[18]
*11 _000_[19]
*12 _000_[1]
*13 _000_[2]
*14 _000_[3]
*15 _000_[4]
*16 _000_[5]
*17 _000_[6]
*18 _000_[7]
*19 _000_[8]
*20 _000_[9]
*21 _001_
*22 _002_
*23 _003_
*24 _004_
*25 _005_
*26 _006_
*27 _007_
*28 _008_
*29 _009_
*30 _010_
*31 _011_
*32 _012_
*33 _013_
*34 _014_
*35 _015_
*36 _016_
*37 _017_
*38 _018_
*39 _019_
*40 _020_
*41 _021_
*42 _022_
*43 _023_
*44 _024_
*45 _025_
*46 _026_
*47 _027_
*48 _028_
*49 _029_
*50 _030_
*51 _031_
*52 _032_
*53 _033_
*54 _034_
*55 _035_
*56 _036_
*57 _037_
*58 _038_
*59 _039_
*60 _040_
*61 _041_
*62 _042_
*63 _043_
*64 _044_
*65 _045_
*66 _046_
*67 _047_
*68 _048_
*69 _049_
*70 _050_
*71 _051_
*72 _052_
*73 _053_
*74 _054_
*75 _055_
*76 _056_
*77 _057_
*78 _058_
*79 _059_
*80 _060_
*81 _061_
*82 _062_
*83 _063_
*84 _064_
*85 _065_
*86 _066_
*87 _067_
*88 _068_
*89 _069_
*90 _070_
*91 _071_
*92 _072_
*93 _073_
*94 _074_
*95 _075_
*96 _076_
*97 _077_
*98 _078_
*99 _079_
*100 _080_
*101 _081_
*102 _082_
*103 _083_
*104 _084_
*105 _085_
*106 _086_
*107 _087_
*108 _088_
*109 _089_
*110 _090_
*111 _091_
*112 _092_
*113 _093_
*114 _094_
*115 _095_
*116 _096_
*117 _097_
*118 _098_
*119 _099_
*120 _100_
*121 _101_
*122 _102_
*123 _103_
*124 _104_
*125 _105_
*126 _106_
*127 _107_
*128 _108_
*129 _109_
*130 _110_
*131 _111_
*132 _112_
*133 _113_
*134 _114_
*135 _115_
*136 _116_
*137 _117_
*138 _118_
*139 _119_
*140 _120_
*141 _121_
*142 _122_
*143 _123_
*144 _124_
*145 _125_
*146 _126_
*147 _127_
*148 _128_
*149 _129_
*150 _130_
*151 _131_
*152 _132_
*153 _133_
*154 _134_
*155 _135_
*156 _136_
*157 _137_
*158 _138_
*159 _139_
*160 _140_
*161 _141_
*162 _142_
*163 _143_
*164 _144_
*165 _145_
*166 _146_
*167 _147_
*168 _148_
*169 _149_
*170 _150_
*171 _151_
*172 _152_
*173 _153_
*174 _154_
*175 _155_
*176 _156_
*177 _157_
*178 _158_
*179 _159_
*180 _160_
*181 _161_
*182 _162_
*183 _163_
*184 _164_
*185 _165_
*186 _166_
*187 _167_
*188 _168_
*189 _169_
*190 _170_
*191 _171_
*192 _172_
*193 _173_
*194 _174_
*195 _175_
*196 _176_
*197 _177_
*198 _178_
*199 _179_
*200 _180_
*201 _181_
*202 _182_
*203 _183_
*204 _184_
*205 _185_
*206 _186_
*207 _187_
*208 _188_
*209 _189_
*210 _190_
*211 _191_
*212 _192_
*213 _193_
*214 _194_
*215 _195_
*216 _196_
*217 _197_
*218 _198_
*219 _199_
*220 _200_
*221 _201_
*222 _202_
*223 _203_
*224 _204_
*225 _205_
*226 _206_
*227 _207_
*228 _208_
*229 _209_
*230 _210_
*231 _211_
*232 _212_
*233 _213_
*234 _214_
*235 _215_
*236 _216_
*237 _217_
*238 _218_
*239 _219_
*240 _220_
*241 _221_
*242 _222_
*243 _223_
*244 _224_
*245 _225_
*246 _226_
*247 _227_
*248 _228_
*249 _229_
*250 _230_
*251 _231_
*252 _232_
*253 _233_
*254 _234_
*255 _235_
*256 _236_
*257 _237_
*258 _238_
*259 _239_
*260 _240_
*261 _241_
*262 _242_
*263 _243_
*264 _244_
*265 _245_
*266 _246_
*267 _247_
*268 _248_
*269 _249_
*270 _250_
*271 _251_
*272 _252_
*273 _253_
*274 _254_
*275 _255_
*276 _256_
*277 _257_
*278 _258_
*279 _259_
*280 _260_
*281 _261_
*282 _262_
*283 _263_
*284 _264_
*285 _265_
*286 _266_
*287 _267_
*288 _268_
*289 _269_
*290 _270_
*291 _271_
*292 _272_
*293 _273_
*294 _274_
*295 _275_
*296 _276_
*297 _277_
*298 _278_
*299 _279_
*300 _280_
*301 _281_
*302 _282_
*303 _283_
*304 _284_
*305 _285_
*306 _286_
*307 _287_
*308 _288_
*309 _289_
*310 _290_
*311 _291_
*312 _292_
*313 _293_
*314 _294_
*315 _295_
*316 _296_
*317 _297_
*318 _298_
*319 _299_
*320 _300_
*321 _301_
*322 _302_
*323 _303_
*324 _304_
*325 _305_
*326 _306_
*327 _307_
*328 _308_
*329 _309_
*330 _310_
*331 _311_
*332 _312_
*333 _313_
*334 _314_
*335 _315_
*336 _316_
*337 _317_
*338 _318_
*339 _319_
*340 _320_
*341 a[0]
*342 a[1]
*343 a[2]
*344 a[3]
*345 a[4]
*346 a[5]
*347 a[6]
*348 a[7]
*349 acc[0]
*350 acc[10]
*351 acc[11]
*352 acc[12]
*353 acc[13]
*354 acc[14]
*355 acc[15]
*356 acc[16]
*357 acc[17]
*358 acc[18]
*359 acc[1]
*360 acc[2]
*361 acc[3]
*362 acc[4]
*363 acc[5]
*364 acc[6]
*365 acc[7]
*366 acc[8]
*367 acc[9]
*368 b[0]
*369 b[1]
*370 b[2]
*371 b[3]
*372 b[4]
*373 b[5]
*374 b[6]
*375 b[7]
*376 clear_acc
*377 clk
*378 clknet_0_clk
*379 clknet_1_0__leaf_clk
*380 clknet_1_1__leaf_clk
*381 en
*382 rst_n
*383 scan_en
*384 scan_in
*385 scan_out
*386 _321_
*387 _322_
*388 _323_
*389 _324_
*390 _325_
*391 _326_
*392 _327_
*393 _328_
*394 _329_
*395 _330_
*396 _331_
*397 _332_
*398 _333_
*399 _334_
*400 _335_
*401 _336_
*402 _337_
*403 _338_
*404 _339_
*405 _340_
*406 _341_
*407 _342_
*408 _343_
*409 _344_
*410 _345_
*411 _346_
*412 _347_
*413 _348_
*414 _349_
*415 _350_
*416 _351_
*417 _352_
*418 _353_
*419 _354_
*420 _355_
*421 _356_
*422 _357_
*423 _358_
*424 _359_
*425 _360_
*426 _361_
*427 _362_
*428 _363_
*429 _364_
*430 _365_
*431 _366_
*432 _367_
*433 _368_
*434 _369_
*435 _370_
*436 _371_
*437 _372_
*438 _373_
*439 _374_
*440 _375_
*441 _376_
*442 _377_
*443 _378_
*444 _379_
*445 _380_
*446 _381_
*447 _382_
*448 _383_
*449 _384_
*450 _385_
*451 _386_
*452 _387_
*453 _388_
*454 _389_
*455 _390_
*456 _391_
*457 _392_
*458 _393_
*459 _394_
*460 _395_
*461 _396_
*462 _397_
*463 _398_
*464 _399_
*465 _400_
*466 _401_
*467 _402_
*468 _403_
*469 _404_
*470 _405_
*471 _406_
*472 _407_
*473 _408_
*474 _409_
*475 _410_
*476 _411_
*477 _412_
*478 _413_
*479 _414_
*480 _415_
*481 _416_
*482 _417_
*483 _418_
*484 _419_
*485 _420_
*486 _421_
*487 _422_
*488 _423_
*489 _424_
*490 _425_
*491 _426_
*492 _427_
*493 _428_
*494 _429_
*495 _430_
*496 _431_
*497 _432_
*498 _433_
*499 _434_
*500 _435_
*501 _436_
*502 _437_
*503 _438_
*504 _439_
*505 _440_
*506 _441_
*507 _442_
*508 _443_
*509 _444_
*510 _445_
*511 _446_
*512 _447_
*513 _448_
*514 _449_
*515 _450_
*516 _451_
*517 _452_
*518 _453_
*519 _454_
*520 _455_
*521 _456_
*522 _457_
*523 _458_
*524 _459_
*525 _460_
*526 _461_
*527 _462_
*528 _463_
*529 _464_
*530 _465_
*531 _466_
*532 _467_
*533 _468_
*534 _469_
*535 _470_
*536 _471_
*537 _472_
*538 _473_
*539 _474_
*540 _475_
*541 _476_
*542 _477_
*543 _478_
*544 _479_
*545 _480_
*546 _481_
*547 _482_
*548 _483_
*549 _484_
*550 _485_
*551 _486_
*552 _487_
*553 _488_
*554 _489_
*555 _490_
*556 _491_
*557 _492_
*558 _493_
*559 _494_
*560 _495_
*561 _496_
*562 _497_
*563 _498_
*564 _499_
*565 _500_
*566 _501_
*567 _502_
*568 _503_
*569 _504_
*570 _505_
*571 _506_
*572 _507_
*573 _508_
*574 _509_
*575 _510_
*576 _511_
*577 _512_
*578 _513_
*579 _514_
*580 _515_
*581 _516_
*582 _517_
*583 _518_
*584 _519_
*585 _520_
*586 _521_
*587 _522_
*588 _523_
*589 _524_
*590 _525_
*591 _526_
*592 _527_
*593 _528_
*594 _529_
*595 _530_
*596 _531_
*597 _532_
*598 _533_
*599 _534_
*600 _535_
*601 _536_
*602 _537_
*603 _538_
*604 _539_
*605 _540_
*606 _541_
*607 _542_
*608 _543_
*609 _544_
*610 _545_
*611 _546_
*612 _547_
*613 _548_
*614 _549_
*615 _550_
*616 _551_
*617 _552_
*618 _553_
*619 _554_
*620 _555_
*621 _556_
*622 _557_
*623 _558_
*624 _559_
*625 _560_
*626 _561_
*627 _562_
*628 _563_
*629 _564_
*630 _565_
*631 _566_
*632 _567_
*633 _568_
*634 _569_
*635 _570_
*636 _571_
*637 _572_
*638 _573_
*639 _574_
*640 _575_
*641 _576_
*642 _577_
*643 _578_
*644 _579_
*645 _580_
*646 _581_
*647 _582_
*648 _583_
*649 _584_
*650 _585_
*651 _586_
*652 _587_
*653 _588_
*654 _589_
*655 _590_
*656 _591_
*657 _592_
*658 _593_
*659 _594_
*660 _595_
*661 _596_
*662 _597_
*663 _598_
*664 _599_
*665 _600_
*666 _601_
*667 _602_
*668 _603_
*669 _604_
*670 _605_
*671 _606_
*672 _607_
*673 _608_
*674 _609_
*675 _610_
*676 _611_
*677 _612_
*678 _613_
*679 _614_
*680 _615_
*681 _616_
*682 _617_
*683 _618_
*684 _619_
*685 _620_
*686 _621_
*687 _622_
*688 _623_
*689 _624_
*690 _625_
*691 _626_
*692 _627_
*693 _628_
*694 _629_
*695 _630_
*696 _631_
*697 _632_
*698 _633_
*699 _634_
*700 _635_
*701 _636_
*702 _637_
*703 _638_
*704 _639_
*705 _640_
*706 _641_
*707 _642_
*708 _643_
*709 _644_
*710 _645_
*711 _646_
*712 _647_
*713 _648_
*714 _649_
*715 _650_
*716 _651_
*717 _652_
*718 _653_
*719 _654_
*720 _655_
*721 _656_
*722 _657_
*723 _658_
*724 _659_
*725 _660_
*726 _661_
*727 _662_
*728 _663_
*729 _664_
*730 _665_
*731 _666_
*732 _667_
*733 _668_
*734 _669_
*735 _670_
*736 _671_
*737 _672_
*738 _673_
*739 _674_
*740 _675_
*741 _676_
*742 _677_
*743 _678_
*744 _679_
*745 _680_
*746 clkbuf_0_clk
*747 clkbuf_1_0__f_clk
*748 clkbuf_1_1__f_clk

*PORTS
a[0] I
a[1] I
a[2] I
a[3] I
a[4] I
a[5] I
a[6] I
a[7] I
out[0] O
out[10] O
out[11] O
out[12] O
out[13] O
out[14] O
out[15] O
out[16] O
out[17] O
out[18] O
out[1] O
out[2] O
out[3] O
out[4] O
out[5] O
out[6] O
out[7] O
out[8] O
out[9] O
b[0] I
b[1] I
b[2] I
b[3] I
b[4] I
b[5] I
b[6] I
b[7] I
clear_acc I
clk I
en I
rst_n I
scan_en I
scan_in I
out[19] O
scan_out O

*D_NET *1 0.000274776
*CONN
*I *726:D I *D sky130_fd_sc_hd__dfrtp_1
*I *392:X O *D sky130_fd_sc_hd__a32o_1
*CAP
1 *726:D 0.000137388
2 *392:X 0.000137388
3 *726:D out[8] 0
4 *726:D *392:A3 0
5 *726:D *423:A 0
6 *726:D *339:10 0
7 *726:D *382:64 0
*RES
1 *392:X *726:D 30.6 
*END

*D_NET *2 0.000196059
*CONN
*I *736:D I *D sky130_fd_sc_hd__dfrtp_1
*I *624:X O *D sky130_fd_sc_hd__a21o_1
*CAP
1 *736:D 9.80294e-05
2 *624:X 9.80294e-05
3 *736:D *624:A2 0
4 *736:D *341:42 0
5 *736:D *350:10 0
6 *736:D *380:56 0
*RES
1 *624:X *736:D 29.7786 
*END

*D_NET *3 0.000344236
*CONN
*I *737:D I *D sky130_fd_sc_hd__dfrtp_1
*I *651:X O *D sky130_fd_sc_hd__a21o_1
*CAP
1 *737:D 0.000172118
2 *651:X 0.000172118
3 *737:D *736:RESET_B 0
4 *737:D *737:RESET_B 0
5 *737:D *350:10 0
6 *737:D *350:41 0
7 *737:D *383:232 0
*RES
1 *651:X *737:D 31.2429 
*END

*D_NET *4 0.000550288
*CONN
*I *738:D I *D sky130_fd_sc_hd__dfrtp_1
*I *673:X O *D sky130_fd_sc_hd__a21o_1
*CAP
1 *738:D 0.000275144
2 *673:X 0.000275144
3 *738:D *380:48 0
4 *738:D *381:95 0
5 *738:D *382:210 0
*RES
1 *673:X *738:D 33.475 
*END

*D_NET *5 0.000332314
*CONN
*I *739:D I *D sky130_fd_sc_hd__dfrtp_1
*I *690:X O *D sky130_fd_sc_hd__a21o_1
*CAP
1 *739:D 0.000166157
2 *690:X 0.000166157
3 *739:D *310:59 0
4 *739:D *341:15 0
5 *739:D *360:64 0
6 *739:D *382:204 0
*RES
1 *690:X *739:D 31.1759 
*END

*D_NET *6 0.000326752
*CONN
*I *740:D I *D sky130_fd_sc_hd__dfrtp_1
*I *703:X O *D sky130_fd_sc_hd__a21o_1
*CAP
1 *740:D 0.000163376
2 *703:X 0.000163376
3 *740:D *740:RESET_B 0
4 *740:D *288:20 0
5 *740:D *341:15 0
6 *740:D *359:72 0
7 *740:D *382:200 0
*RES
1 *703:X *740:D 31.1179 
*END

*D_NET *7 0.00025354
*CONN
*I *741:D I *D sky130_fd_sc_hd__dfrtp_1
*I *709:X O *D sky130_fd_sc_hd__a21o_1
*CAP
1 *741:D 0.00012677
2 *709:X 0.00012677
3 *741:D *742:CLK 0
4 *741:D *379:90 0
5 *741:D *382:104 0
*RES
1 *709:X *741:D 30.2964 
*END

*D_NET *8 0.000541611
*CONN
*I *742:D I *D sky130_fd_sc_hd__dfrtp_1
*I *715:Y O *D sky130_fd_sc_hd__o21ai_0
*CAP
1 *742:D 0.000270806
2 *715:Y 0.000270806
3 *742:D out[4] 0
4 *742:D *715:A1 0
5 *742:D *715:A2 0
6 *742:D *742:CLK 0
7 *742:D *382:118 0
*RES
1 *715:Y *742:D 25.2607 
*END

*D_NET *9 0.000274776
*CONN
*I *743:D I *D sky130_fd_sc_hd__dfrtp_1
*I *718:X O *D sky130_fd_sc_hd__a32o_1
*CAP
1 *743:D 0.000137388
2 *718:X 0.000137388
3 *743:D *714:B 0
4 *743:D *718:B1 0
5 *743:D *743:CLK 0
6 *743:D *743:RESET_B 0
*RES
1 *718:X *743:D 30.6 
*END

*D_NET *10 0.000421509
*CONN
*I *744:D I *D sky130_fd_sc_hd__dfrtp_1
*I *722:Y O *D sky130_fd_sc_hd__o21ai_0
*CAP
1 *744:D 0.000210754
2 *722:Y 0.000210754
3 *744:D *722:A2 0
4 *744:D *722:B1 0
5 *744:D *724:A1 0
6 *744:D *724:A3 0
7 *744:D *743:CLK 0
8 *744:D *744:CLK 0
9 *744:D *745:CLK 0
*RES
1 *722:Y *744:D 32.2071 
*END

*D_NET *11 0.000240003
*CONN
*I *745:D I *D sky130_fd_sc_hd__dfrtp_1
*I *725:X O *D sky130_fd_sc_hd__a22o_1
*CAP
1 *745:D 0.000120002
2 *725:X 0.000120002
3 *745:D *725:A1 0
4 *745:D *745:CLK 0
5 *745:D *358:10 0
*RES
1 *725:X *745:D 21.1045 
*END

*D_NET *12 0.000467172
*CONN
*I *727:D I *D sky130_fd_sc_hd__dfrtp_1
*I *401:X O *D sky130_fd_sc_hd__a21o_1
*CAP
1 *727:D 0.000233586
2 *401:X 0.000233586
3 *727:D *401:A1 0
4 *727:D *429:B 0
5 *727:D *24:10 0
6 *727:D *383:79 0
*RES
1 *401:X *727:D 24.4214 
*END

*D_NET *13 0.000274776
*CONN
*I *728:D I *D sky130_fd_sc_hd__dfrtp_1
*I *413:X O *D sky130_fd_sc_hd__a21o_1
*CAP
1 *728:D 0.000137388
2 *413:X 0.000137388
3 *728:D *342:17 0
4 *728:D *354:30 0
5 *728:D *377:9 0
6 *728:D *380:36 0
7 *728:D *380:42 0
*RES
1 *413:X *728:D 30.6 
*END

*D_NET *14 0.000325566
*CONN
*I *729:D I *D sky130_fd_sc_hd__dfrtp_1
*I *428:X O *D sky130_fd_sc_hd__a21o_1
*CAP
1 *729:D 0.000162783
2 *428:X 0.000162783
3 *729:D *729:CLK 0
4 *729:D *383:143 0
*RES
1 *428:X *729:D 22.6759 
*END

*D_NET *15 0.000292955
*CONN
*I *730:D I *D sky130_fd_sc_hd__dfrtp_1
*I *449:X O *D sky130_fd_sc_hd__a21o_1
*CAP
1 *730:D 0.000146477
2 *449:X 0.000146477
3 *730:D *447:A1 0
4 *730:D *449:B1 0
5 *730:D *472:A1 0
6 *730:D *730:CLK 0
7 *730:D *355:22 0
8 *730:D *379:79 0
*RES
1 *449:X *730:D 30.7652 
*END

*D_NET *16 0.000432211
*CONN
*I *731:D I *D sky130_fd_sc_hd__dfrtp_1
*I *472:X O *D sky130_fd_sc_hd__a21o_1
*CAP
1 *731:D 0.000216106
2 *472:X 0.000216106
3 *731:D *447:B1 0
4 *731:D *473:B 0
5 *731:D *730:RESET_B 0
*RES
1 *472:X *731:D 32.2429 
*END

*D_NET *17 0.000301721
*CONN
*I *732:D I *D sky130_fd_sc_hd__dfrtp_1
*I *499:X O *D sky130_fd_sc_hd__a21o_1
*CAP
1 *732:D 0.000150861
2 *499:X 0.000150861
3 *732:D *732:CLK 0
4 *732:D *732:RESET_B 0
5 *732:D *364:16 0
6 *732:D *379:26 0
7 *732:D *382:85 0
*RES
1 *499:X *732:D 30.8321 
*END

*D_NET *18 0.000117979
*CONN
*I *733:D I *D sky130_fd_sc_hd__dfrtp_1
*I *528:X O *D sky130_fd_sc_hd__a21o_1
*CAP
1 *733:D 5.89896e-05
2 *528:X 5.89896e-05
3 *733:D *499:B1 0
4 *733:D *381:174 0
*RES
1 *528:X *733:D 28.9393 
*END

*D_NET *19 0.000169277
*CONN
*I *734:D I *D sky130_fd_sc_hd__dfrtp_1
*I *563:X O *D sky130_fd_sc_hd__a21o_1
*CAP
1 *734:D 8.46387e-05
2 *563:X 8.46387e-05
3 *734:D *310:85 0
4 *734:D *365:55 0
5 *734:D *382:156 0
6 *734:D *383:45 0
*RES
1 *563:X *734:D 29.475 
*END

*D_NET *20 0.000274138
*CONN
*I *735:D I *D sky130_fd_sc_hd__dfrtp_1
*I *594:X O *D sky130_fd_sc_hd__a21o_1
*CAP
1 *735:D 0.000137069
2 *594:X 0.000137069
3 *735:D *592:B1 0
4 *735:D *594:A2 0
5 *735:D *735:CLK 0
6 *735:D *735:RESET_B 0
7 *735:D *323:8 0
8 *735:D *345:17 0
*RES
1 *594:X *735:D 30.6179 
*END

*D_NET *21 0.000497877
*CONN
*I *427:A2 I *D sky130_fd_sc_hd__a21oi_1
*I *425:Y O *D sky130_fd_sc_hd__xnor2_1
*CAP
1 *427:A2 0.000248939
2 *425:Y 0.000248939
3 *427:A2 *426:A2 0
4 *427:A2 *426:B1 0
5 *427:A2 *427:B1 0
6 *427:A2 *381:45 0
7 *427:A2 *381:56 0
8 *427:A2 *383:122 0
9 *427:A2 *383:143 0
*RES
1 *425:Y *427:A2 32.9036 
*END

*D_NET *22 5.13376e-05
*CONN
*I *427:B1 I *D sky130_fd_sc_hd__a21oi_1
*I *426:Y O *D sky130_fd_sc_hd__o21ai_0
*CAP
1 *427:B1 2.56688e-05
2 *426:Y 2.56688e-05
3 *427:B1 *381:45 0
4 *427:A2 *427:B1 0
*RES
1 *426:Y *427:B1 19.1357 
*END

*D_NET *23 0.000537632
*CONN
*I *428:B1 I *D sky130_fd_sc_hd__a21o_1
*I *427:Y O *D sky130_fd_sc_hd__a21oi_1
*CAP
1 *428:B1 0.000268816
2 *427:Y 0.000268816
3 *428:B1 *288:20 0
4 *428:B1 *289:30 0
5 *428:B1 *357:32 0
6 *428:B1 *381:19 0
7 *428:B1 *383:122 0
8 *428:B1 *383:143 0
*RES
1 *427:Y *428:B1 33.3679 
*END

*D_NET *24 0.00101875
*CONN
*I *446:B I *D sky130_fd_sc_hd__xnor3_1
*I *450:B I *D sky130_fd_sc_hd__maj3_1
*I *429:X O *D sky130_fd_sc_hd__maj3_1
*CAP
1 *446:B 0
2 *450:B 0.000320068
3 *429:X 0.000189307
4 *24:10 0.000509375
5 *450:B out[8] 0
6 *450:B *446:A 0
7 *450:B *450:A 0
8 *450:B *726:CLK 0
9 *450:B *44:14 0
10 *450:B *339:10 0
11 *450:B *382:64 0
12 *24:10 *429:B 0
13 *24:10 *429:C 0
14 *24:10 *446:A 0
15 *727:D *24:10 0
*RES
1 *429:X *24:10 13.55 
2 *24:10 *450:B 25.1929 
3 *24:10 *446:B 9.3 
*END

*D_NET *25 0.000990815
*CONN
*I *442:SLEEP I *D sky130_fd_sc_hd__lpflow_isobufsrc_1
*I *443:A I *D sky130_fd_sc_hd__xnor2_1
*I *430:X O *D sky130_fd_sc_hd__maj3_1
*CAP
1 *442:SLEEP 1.68986e-05
2 *443:A 0.000160644
3 *430:X 0.000317865
4 *25:6 0.000495407
5 *443:A *442:A 0
6 *443:A *36:14 0
7 *443:A *37:10 0
8 *443:A *38:10 0
9 *25:6 *421:C 0
10 *25:6 *430:B 0
11 *25:6 *37:10 0
12 *25:6 *336:12 0
*RES
1 *430:X *25:6 15.9964 
2 *25:6 *443:A 12.7286 
3 *25:6 *442:SLEEP 9.72857 
*END

*D_NET *26 0.00170459
*CONN
*I *451:A I *D sky130_fd_sc_hd__maj3_1
*I *441:A I *D sky130_fd_sc_hd__xor3_1
*I *431:X O *D sky130_fd_sc_hd__maj3_1
*CAP
1 *451:A 0
2 *441:A 8.77017e-05
3 *431:X 0.000764591
4 *26:12 0.000852293
5 *441:A *441:B 0
6 *441:A *451:B 0
7 *441:A *451:C 0
8 *441:A *342:45 0
9 *26:12 *420:C 0
10 *26:12 *430:A 0
11 *26:12 *431:A 0
12 *26:12 *431:B 0
13 *26:12 *431:C 0
14 *26:12 *438:B 0
15 *26:12 *439:A1 0
16 *26:12 *464:B 0
17 *26:12 *491:A 0
18 *26:12 *492:A 0
19 *26:12 *492:B 0
20 *26:12 *45:14 0
21 *26:12 *55:10 0
22 *26:12 *56:14 0
23 *26:12 *67:10 0
24 *26:12 *83:14 0
25 *26:12 *341:84 0
26 *26:12 *371:45 0
27 *26:12 *371:51 0
28 *26:12 *372:145 0
29 *26:12 *373:44 0
*RES
1 *431:X *26:12 34.7821 
2 *26:12 *441:A 11.0679 
3 *26:12 *451:A 9.3 
*END

*D_NET *27 0.000988973
*CONN
*I *452:B I *D sky130_fd_sc_hd__maj3_1
*I *435:B I *D sky130_fd_sc_hd__xor3_1
*I *432:X O *D sky130_fd_sc_hd__and2_0
*CAP
1 *452:B 0
2 *435:B 0.00014674
3 *432:X 0.000347746
4 *27:14 0.000494486
5 *435:B *435:A 0
6 *435:B *435:C 0
7 *435:B *452:C 0
8 *435:B *461:A 0
9 *435:B *475:C 0
10 *435:B *345:38 0
11 *27:14 out[0] 0
12 *27:14 *418:A 0
13 *27:14 *432:B 0
14 *27:14 *433:A 0
15 *27:14 *433:B 0
16 *27:14 *452:C 0
17 *27:14 *461:A 0
18 *27:14 *335:10 0
19 *27:14 *344:71 0
20 *27:14 *345:17 0
21 *27:14 *345:38 0
*RES
1 *432:X *27:14 25.8179 
2 *27:14 *435:B 12.3 
3 *27:14 *452:B 9.3 
*END

*D_NET *28 0.00115406
*CONN
*I *452:C I *D sky130_fd_sc_hd__maj3_1
*I *435:C I *D sky130_fd_sc_hd__xor3_1
*I *433:X O *D sky130_fd_sc_hd__and2_0
*CAP
1 *452:C 0.000265841
2 *435:C 0.000311189
3 *433:X 0
4 *28:4 0.00057703
5 *435:C out[0] 0
6 *435:C *433:A 0
7 *435:C *461:C 0
8 *435:C *475:C 0
9 *452:C *418:A 0
10 *452:C *419:A 0
11 *452:C *433:A 0
12 *452:C *433:B 0
13 *452:C *345:17 0
14 *452:C *345:38 0
15 *435:B *435:C 0
16 *435:B *452:C 0
17 *27:14 *452:C 0
*RES
1 *433:X *28:4 9.3 
2 *28:4 *435:C 25.0143 
3 *28:4 *452:C 24.0679 
*END

*D_NET *29 0.00040035
*CONN
*I *476:A I *D sky130_fd_sc_hd__maj3_1
*I *456:A I *D sky130_fd_sc_hd__xor3_1
*I *434:X O *D sky130_fd_sc_hd__and2_0
*CAP
1 *476:A 6.20329e-05
2 *456:A 2.56688e-05
3 *434:X 0.000112474
4 *29:10 0.000200175
5 *476:A *456:B 0
6 *476:A *343:36 0
7 *29:10 out[10] 0
8 *29:10 *369:48 0
*RES
1 *434:X *29:10 20.8536 
2 *29:10 *456:A 9.83571 
3 *29:10 *476:A 10.6571 
*END

*D_NET *30 0.00110267
*CONN
*I *451:B I *D sky130_fd_sc_hd__maj3_1
*I *441:B I *D sky130_fd_sc_hd__xor3_1
*I *435:X O *D sky130_fd_sc_hd__xor3_1
*CAP
1 *451:B 0.000104386
2 *441:B 4.53482e-05
3 *435:X 0.000401603
4 *30:12 0.000551337
5 *441:B *342:45 0
6 *451:B *451:C 0
7 *30:12 *372:9 0
8 *30:12 *372:145 0
9 *441:A *441:B 0
10 *441:A *451:B 0
*RES
1 *435:X *30:12 27.3536 
2 *30:12 *441:B 10.2464 
3 *30:12 *451:B 11.4786 
*END

*D_NET *31 0.00121982
*CONN
*I *486:A I *D sky130_fd_sc_hd__maj3_1
*I *460:A I *D sky130_fd_sc_hd__xnor3_1
*I *437:B I *D sky130_fd_sc_hd__nor2_1
*I *436:Y O *D sky130_fd_sc_hd__nand2_1
*CAP
1 *486:A 8.17123e-05
2 *460:A 0
3 *437:B 2.07489e-05
4 *436:Y 0.000109734
5 *31:29 0.000479428
6 *31:8 0.000528199
7 *486:A *486:B 0
8 *486:A *342:41 0
9 *31:8 *436:A 0
10 *31:8 *462:B 0
11 *31:8 *474:A 0
12 *31:8 *341:84 0
13 *31:29 *460:C 0
14 *31:29 *83:14 0
15 *31:29 *342:41 0
16 *31:29 *371:51 0
*RES
1 *436:Y *31:8 11.6929 
2 *31:8 *437:B 9.83571 
3 *31:8 *31:29 17.6964 
4 *31:29 *460:A 9.3 
5 *31:29 *486:A 11.0679 
*END

*D_NET *32 0.000405567
*CONN
*I *474:A I *D sky130_fd_sc_hd__maj3_1
*I *437:Y O *D sky130_fd_sc_hd__nor2_1
*CAP
1 *474:A 0.000202783
2 *437:Y 0.000202783
3 *474:A *436:B 0
4 *474:A *462:B 0
5 *474:A *341:84 0
6 *474:A *342:41 0
7 *474:A *342:45 0
8 *31:8 *474:A 0
*RES
1 *437:Y *474:A 22.8321 
*END

*D_NET *33 0.00101853
*CONN
*I *463:A I *D sky130_fd_sc_hd__xnor2_1
*I *465:A I *D sky130_fd_sc_hd__xnor3_1
*I *440:A I *D sky130_fd_sc_hd__lpflow_isobufsrc_1
*I *438:Y O *D sky130_fd_sc_hd__nand4_1
*CAP
1 *463:A 0
2 *465:A 0
3 *440:A 0.000200385
4 *438:Y 0.000207489
5 *33:12 0.000301777
6 *33:10 0.000308881
7 *440:A *440:SLEEP 0
8 *440:A *465:C 0
9 *440:A *36:14 0
10 *440:A *363:20 0
11 *33:10 *438:D 0
12 *33:10 *464:B 0
13 *33:10 *465:C 0
14 *33:10 *56:14 0
15 *33:10 *371:30 0
16 *33:10 *371:45 0
17 *33:12 *464:B 0
18 *33:12 *465:C 0
*RES
1 *438:Y *33:10 13.5679 
2 *33:10 *33:12 2.17857 
3 *33:12 *440:A 22.6393 
4 *33:12 *465:A 9.3 
5 *33:10 *463:A 9.3 
*END

*D_NET *34 0.000171125
*CONN
*I *440:SLEEP I *D sky130_fd_sc_hd__lpflow_isobufsrc_1
*I *439:Y O *D sky130_fd_sc_hd__a22oi_1
*CAP
1 *440:SLEEP 8.55626e-05
2 *439:Y 8.55626e-05
3 *440:SLEEP *439:A1 0
4 *440:SLEEP *439:B2 0
5 *440:SLEEP *465:C 0
6 *440:SLEEP *35:12 0
7 *440:SLEEP *371:13 0
8 *440:A *440:SLEEP 0
*RES
1 *439:Y *440:SLEEP 20.3857 
*END

*D_NET *35 0.00107268
*CONN
*I *451:C I *D sky130_fd_sc_hd__maj3_1
*I *441:C I *D sky130_fd_sc_hd__xor3_1
*I *440:X O *D sky130_fd_sc_hd__lpflow_isobufsrc_1
*CAP
1 *451:C 0.00042494
2 *441:C 0
3 *440:X 0.0001114
4 *35:12 0.00053634
5 *451:C *439:B2 0
6 *451:C *45:14 0
7 *451:C *342:45 0
8 *451:C *371:13 0
9 *35:12 *439:B2 0
10 *35:12 *355:22 0
11 *35:12 *371:13 0
12 *440:SLEEP *35:12 0
13 *441:A *451:C 0
14 *451:B *451:C 0
*RES
1 *440:X *35:12 20.7821 
2 *35:12 *441:C 9.3 
3 *35:12 *451:C 27.4429 
*END

*D_NET *36 0.00111252
*CONN
*I *442:A I *D sky130_fd_sc_hd__lpflow_isobufsrc_1
*I *443:B I *D sky130_fd_sc_hd__xnor2_1
*I *441:X O *D sky130_fd_sc_hd__xor3_1
*CAP
1 *442:A 9.92526e-05
2 *443:B 0
3 *441:X 0.000457008
4 *36:14 0.000556261
5 *442:A *37:10 0
6 *36:14 *465:B 0
7 *36:14 *355:22 0
8 *36:14 *363:20 0
9 *440:A *36:14 0
10 *443:A *442:A 0
11 *443:A *36:14 0
*RES
1 *441:X *36:14 28.4964 
2 *36:14 *443:B 9.3 
3 *36:14 *442:A 11.4964 
*END

*D_NET *37 0.000883358
*CONN
*I *465:B I *D sky130_fd_sc_hd__xnor3_1
*I *464:A I *D sky130_fd_sc_hd__and2_0
*I *442:X O *D sky130_fd_sc_hd__lpflow_isobufsrc_1
*CAP
1 *465:B 0.000139215
2 *464:A 4.53482e-05
3 *442:X 0.000257116
4 *37:10 0.000441679
5 *465:B *355:22 0
6 *37:10 *464:B 0
7 *442:A *37:10 0
8 *443:A *37:10 0
9 *25:6 *37:10 0
10 *36:14 *465:B 0
*RES
1 *442:X *37:10 14.9964 
2 *37:10 *464:A 10.2464 
3 *37:10 *465:B 21.4607 
*END

*D_NET *38 0.00101279
*CONN
*I *445:B I *D sky130_fd_sc_hd__xor2_1
*I *444:B I *D sky130_fd_sc_hd__nand2_1
*I *443:Y O *D sky130_fd_sc_hd__xnor2_1
*CAP
1 *445:B 0.000155069
2 *444:B 0
3 *443:Y 0.000351324
4 *38:10 0.000506393
5 *445:B *444:A 0
6 *445:B *92:8 0
7 *445:B *355:22 0
8 *445:B *363:20 0
9 *38:10 *466:A 0
10 *38:10 *60:14 0
11 *38:10 *355:22 0
12 *38:10 *363:20 0
13 *443:A *38:10 0
*RES
1 *443:Y *38:10 21.6571 
2 *38:10 *444:B 13.8 
3 *38:10 *445:B 17.3 
*END

*D_NET *39 0.00106092
*CONN
*I *466:A I *D sky130_fd_sc_hd__nor2b_1
*I *467:A I *D sky130_fd_sc_hd__xnor2_1
*I *444:Y O *D sky130_fd_sc_hd__nand2_1
*CAP
1 *466:A 0.000219441
2 *467:A 0.000104386
3 *444:Y 0.000206634
4 *39:10 0.000530461
5 *466:A *60:14 0
6 *466:A *363:20 0
7 *467:A *494:C 0
8 *467:A *496:B 0
9 *467:A *61:12 0
10 *39:10 *494:A 0
11 *39:10 *494:C 0
12 *39:10 *501:B 0
13 *39:10 *60:14 0
14 *38:10 *466:A 0
*RES
1 *444:Y *39:10 13.675 
2 *39:10 *467:A 11.4786 
3 *39:10 *466:A 23.2821 
*END

*D_NET *40 0.00181283
*CONN
*I *446:C I *D sky130_fd_sc_hd__xnor3_1
*I *450:C I *D sky130_fd_sc_hd__maj3_1
*I *445:X O *D sky130_fd_sc_hd__xor2_1
*CAP
1 *446:C 0.000162811
2 *450:C 0
3 *445:X 0.000743603
4 *40:8 0.000906415
5 *446:C *472:B1 0
6 *446:C *355:22 0
7 *446:C *379:12 0
8 *40:8 *423:B 0
9 *40:8 *444:A 0
10 *40:8 *472:B1 0
11 *40:8 *525:B 0
12 *40:8 *337:8 0
13 *40:8 *338:10 0
14 *40:8 *379:12 0
15 *40:8 *379:20 0
16 *40:8 *382:64 0
*RES
1 *445:X *40:8 30.6214 
2 *40:8 *450:C 13.8 
3 *40:8 *446:C 17.6214 
*END

*D_NET *41 0.000314135
*CONN
*I *448:A2 I *D sky130_fd_sc_hd__a21oi_1
*I *446:X O *D sky130_fd_sc_hd__xnor3_1
*CAP
1 *448:A2 0.000157068
2 *446:X 0.000157068
3 *448:A2 *447:A1 0
4 *448:A2 *472:A1 0
5 *448:A2 *362:31 0
6 *448:A2 *381:223 0
*RES
1 *446:X *448:A2 31.0107 
*END

*D_NET *42 5.13376e-05
*CONN
*I *448:B1 I *D sky130_fd_sc_hd__a21oi_1
*I *447:Y O *D sky130_fd_sc_hd__o21ai_0
*CAP
1 *448:B1 2.56688e-05
2 *447:Y 2.56688e-05
3 *448:B1 *447:A1 0
4 *448:B1 *447:A2 0
*RES
1 *447:Y *448:B1 19.1357 
*END

*D_NET *43 0.000264388
*CONN
*I *449:B1 I *D sky130_fd_sc_hd__a21o_1
*I *448:Y O *D sky130_fd_sc_hd__a21oi_1
*CAP
1 *449:B1 0.000132194
2 *448:Y 0.000132194
3 *449:B1 *447:A1 0
4 *449:B1 *447:A2 0
5 *449:B1 *449:A1 0
6 *449:B1 *379:79 0
7 *449:B1 *381:223 0
8 *730:D *449:B1 0
*RES
1 *448:Y *449:B1 21.2964 
*END

*D_NET *44 0.00166248
*CONN
*I *469:A I *D sky130_fd_sc_hd__xnor2_1
*I *473:B I *D sky130_fd_sc_hd__maj3_1
*I *450:X O *D sky130_fd_sc_hd__maj3_1
*CAP
1 *469:A 0
2 *473:B 0.000350807
3 *450:X 0.000480434
4 *44:14 0.000831241
5 *473:B *468:B 0
6 *473:B *473:A 0
7 *44:14 *450:A 0
8 *44:14 *468:B 0
9 *44:14 *469:B 0
10 *44:14 *470:A1 0
11 *44:14 *470:A2 0
12 *44:14 *471:A2 0
13 *44:14 *726:CLK 0
14 *44:14 *363:10 0
15 *44:14 *381:201 0
16 *450:B *44:14 0
17 *731:D *473:B 0
*RES
1 *450:X *44:14 19.6571 
2 *44:14 *473:B 17.5679 
3 *44:14 *469:A 9.3 
*END

*D_NET *45 0.00073767
*CONN
*I *474:B I *D sky130_fd_sc_hd__maj3_1
*I *462:A I *D sky130_fd_sc_hd__xor2_1
*I *451:X O *D sky130_fd_sc_hd__maj3_1
*CAP
1 *474:B 0
2 *462:A 0.000169414
3 *451:X 0.000199421
4 *45:14 0.000368835
5 *462:A *436:B 0
6 *462:A *439:A1 0
7 *462:A *439:A2 0
8 *462:A *462:B 0
9 *462:A *372:147 0
10 *45:14 *55:10 0
11 *45:14 *342:45 0
12 *451:C *45:14 0
13 *26:12 *45:14 0
*RES
1 *451:X *45:14 22.6571 
2 *45:14 *462:A 12.7107 
3 *45:14 *474:B 9.3 
*END

*D_NET *46 0.00038215
*CONN
*I *475:A I *D sky130_fd_sc_hd__maj3_1
*I *461:A I *D sky130_fd_sc_hd__xor3_1
*I *452:X O *D sky130_fd_sc_hd__maj3_1
*CAP
1 *475:A 0
2 *461:A 8.77017e-05
3 *452:X 0.000103373
4 *46:14 0.000191075
5 *461:A *461:B 0
6 *46:14 *418:A 0
7 *46:14 *433:B 0
8 *46:14 *461:B 0
9 *46:14 *50:14 0
10 *46:14 *345:38 0
11 *435:B *461:A 0
12 *27:14 *461:A 0
*RES
1 *452:X *46:14 20.6036 
2 *46:14 *461:A 11.0679 
3 *46:14 *475:A 9.3 
*END

*D_NET *47 0.000432211
*CONN
*I *476:B I *D sky130_fd_sc_hd__maj3_1
*I *456:B I *D sky130_fd_sc_hd__xor3_1
*I *453:X O *D sky130_fd_sc_hd__and2_0
*CAP
1 *476:B 0
2 *456:B 0.000143745
3 *453:X 7.23606e-05
4 *47:10 0.000216106
5 *456:B *456:C 0
6 *456:B *343:36 0
7 *47:10 out[10] 0
8 *47:10 *482:B 0
9 *476:A *456:B 0
*RES
1 *453:X *47:10 19.9429 
2 *47:10 *456:B 12.3 
3 *47:10 *476:B 9.3 
*END

*D_NET *48 0.00346357
*CONN
*I *476:C I *D sky130_fd_sc_hd__maj3_1
*I *456:C I *D sky130_fd_sc_hd__xor3_1
*I *454:X O *D sky130_fd_sc_hd__and2_0
*CAP
1 *476:C 0
2 *456:C 0.000475728
3 *454:X 0.00125606
4 *48:10 0.00173179
5 *456:C *485:C 0
6 *456:C *68:12 0
7 *456:C *343:36 0
8 *456:C *345:38 0
9 *456:C *369:80 0
10 *48:10 *454:A 0
11 *48:10 *454:B 0
12 *48:10 *455:B 0
13 *48:10 *459:A 0
14 *48:10 *459:B 0
15 *48:10 *480:C 0
16 *48:10 *484:B 0
17 *48:10 *484:C 0
18 *48:10 *485:C 0
19 *48:10 *504:C 0
20 *48:10 *53:8 0
21 *48:10 *69:10 0
22 *48:10 *73:14 0
23 *48:10 *75:10 0
24 *48:10 *369:80 0
25 *456:B *456:C 0
*RES
1 *454:X *48:10 35.6393 
2 *48:10 *456:C 19.2286 
3 *48:10 *476:C 9.3 
*END

*D_NET *49 0.000366118
*CONN
*I *504:A I *D sky130_fd_sc_hd__maj3_1
*I *480:A I *D sky130_fd_sc_hd__xnor3_1
*I *455:Y O *D sky130_fd_sc_hd__nand2_1
*CAP
1 *504:A 2.26741e-05
2 *480:A 7.46534e-05
3 *455:Y 8.57316e-05
4 *49:10 0.000183059
5 *480:A *504:B 0
6 *480:A *504:C 0
7 *480:A *368:13 0
8 *49:10 *344:50 0
9 *49:10 *369:97 0
*RES
1 *455:Y *49:10 20.2464 
2 *49:10 *480:A 11.05 
3 *49:10 *504:A 9.83571 
*END

*D_NET *50 0.000614025
*CONN
*I *461:B I *D sky130_fd_sc_hd__xor3_1
*I *475:B I *D sky130_fd_sc_hd__maj3_1
*I *456:X O *D sky130_fd_sc_hd__xor3_1
*CAP
1 *461:B 0.000161286
2 *475:B 0
3 *456:X 0.000145727
4 *50:14 0.000307012
5 *461:B *475:C 0
6 *50:14 *433:B 0
7 *50:14 *475:C 0
8 *50:14 *345:38 0
9 *50:14 *372:15 0
10 *50:14 *375:15 0
11 *461:A *461:B 0
12 *46:14 *461:B 0
13 *46:14 *50:14 0
*RES
1 *456:X *50:14 21.425 
2 *50:14 *475:B 9.3 
3 *50:14 *461:B 12.7286 
*END

*D_NET *51 0.000458953
*CONN
*I *486:B I *D sky130_fd_sc_hd__maj3_1
*I *460:B I *D sky130_fd_sc_hd__xnor3_1
*I *457:Y O *D sky130_fd_sc_hd__nand2_1
*CAP
1 *486:B 0.000143745
2 *460:B 0
3 *457:Y 8.57316e-05
4 *51:10 0.000229477
5 *486:B *460:C 0
6 *486:B *342:41 0
7 *51:10 *418:A 0
8 *51:10 *345:17 0
9 *486:A *486:B 0
*RES
1 *457:Y *51:10 20.2464 
2 *51:10 *460:B 9.3 
3 *51:10 *486:B 12.3 
*END

*D_NET *52 0.00131971
*CONN
*I *486:C I *D sky130_fd_sc_hd__maj3_1
*I *460:C I *D sky130_fd_sc_hd__xnor3_1
*I *458:Y O *D sky130_fd_sc_hd__nand2_1
*CAP
1 *486:C 0
2 *460:C 0.000368112
3 *458:Y 0.000291745
4 *52:12 0.000659857
5 *460:C *83:14 0
6 *460:C *342:41 0
7 *52:12 *458:A 0
8 *52:12 *490:C 0
9 *52:12 *83:14 0
10 *52:12 *343:70 0
11 *52:12 *368:76 0
12 *52:12 *375:15 0
13 *486:B *460:C 0
14 *31:29 *460:C 0
*RES
1 *458:Y *52:12 24.8893 
2 *52:12 *460:C 18.6929 
3 *52:12 *486:C 9.3 
*END

*D_NET *53 0.000767786
*CONN
*I *484:A I *D sky130_fd_sc_hd__xnor3_1
*I *514:A I *D sky130_fd_sc_hd__maj3_1
*I *459:Y O *D sky130_fd_sc_hd__nand2_1
*CAP
1 *484:A 0
2 *514:A 0.000278651
3 *459:Y 0.000105242
4 *53:8 0.000383893
5 *514:A *484:B 0
6 *514:A *514:B 0
7 *514:A *514:C 0
8 *514:A *73:14 0
9 *514:A *343:36 0
10 *53:8 *459:A 0
11 *53:8 *459:B 0
12 *53:8 *484:B 0
13 *53:8 *73:14 0
14 *48:10 *53:8 0
*RES
1 *459:Y *53:8 11.4964 
2 *53:8 *514:A 24.2643 
3 *53:8 *484:A 9.3 
*END

*D_NET *54 0.00155079
*CONN
*I *475:C I *D sky130_fd_sc_hd__maj3_1
*I *461:C I *D sky130_fd_sc_hd__xor3_1
*I *460:X O *D sky130_fd_sc_hd__xnor3_1
*CAP
1 *475:C 0.000451557
2 *461:C 2.41714e-05
3 *460:X 0.000299667
4 *54:10 0.000775395
5 *461:C *372:15 0
6 *475:C *435:A 0
7 *475:C *372:15 0
8 *54:10 out[0] 0
9 *54:10 *55:10 0
10 *54:10 *371:51 0
11 *54:10 *372:9 0
12 *435:B *475:C 0
13 *435:C *461:C 0
14 *435:C *475:C 0
15 *461:B *475:C 0
16 *50:14 *475:C 0
*RES
1 *460:X *54:10 25.1036 
2 *54:10 *461:C 9.83571 
3 *54:10 *475:C 18.6929 
*END

*D_NET *55 0.0012053
*CONN
*I *462:B I *D sky130_fd_sc_hd__xor2_1
*I *474:C I *D sky130_fd_sc_hd__maj3_1
*I *461:X O *D sky130_fd_sc_hd__xor3_1
*CAP
1 *462:B 0.000206634
2 *474:C 0
3 *461:X 0.000396017
4 *55:10 0.000602651
5 *462:B *436:B 0
6 *462:B *439:A1 0
7 *462:B *56:14 0
8 *462:B *341:84 0
9 *55:10 *371:51 0
10 *55:10 *372:9 0
11 *55:10 *372:145 0
12 *462:A *462:B 0
13 *474:A *462:B 0
14 *26:12 *55:10 0
15 *31:8 *462:B 0
16 *45:14 *55:10 0
17 *54:10 *55:10 0
*RES
1 *461:X *55:10 27.2286 
2 *55:10 *474:C 9.3 
3 *55:10 *462:B 13.55 
*END

*D_NET *56 0.00124548
*CONN
*I *463:B I *D sky130_fd_sc_hd__xnor2_1
*I *465:C I *D sky130_fd_sc_hd__xnor3_1
*I *462:X O *D sky130_fd_sc_hd__xor2_1
*CAP
1 *463:B 2.0535e-05
2 *465:C 0.00037562
3 *462:X 0.000226584
4 *56:14 0.000622738
5 *463:B *438:D 0
6 *465:C *439:A1 0
7 *465:C *439:B2 0
8 *56:14 *439:A1 0
9 *56:14 *371:30 0
10 *56:14 *371:45 0
11 *440:A *465:C 0
12 *440:SLEEP *465:C 0
13 *462:B *56:14 0
14 *26:12 *56:14 0
15 *33:10 *465:C 0
16 *33:10 *56:14 0
17 *33:12 *465:C 0
*RES
1 *462:X *56:14 23.175 
2 *56:14 *465:C 17.1393 
3 *56:14 *463:B 9.72857 
*END

*D_NET *57 0.000562267
*CONN
*I *464:B I *D sky130_fd_sc_hd__and2_0
*I *463:Y O *D sky130_fd_sc_hd__xnor2_1
*CAP
1 *464:B 0.000281133
2 *463:Y 0.000281133
3 *464:B *355:22 0
4 *26:12 *464:B 0
5 *33:10 *464:B 0
6 *33:12 *464:B 0
7 *37:10 *464:B 0
*RES
1 *463:Y *464:B 33.6 
*END

*D_NET *58 0.000786233
*CONN
*I *494:A I *D sky130_fd_sc_hd__xnor3_1
*I *501:A I *D sky130_fd_sc_hd__maj3_1
*I *464:X O *D sky130_fd_sc_hd__and2_0
*CAP
1 *494:A 0.000107893
2 *501:A 2.56688e-05
3 *464:X 0.000259554
4 *58:8 0.000393116
5 *494:A *501:B 0
6 *494:A *355:22 0
7 *501:A *494:C 0
8 *58:8 *421:C 0
9 *58:8 *337:8 0
10 *58:8 *355:22 0
11 *39:10 *494:A 0
*RES
1 *464:X *58:8 19.6929 
2 *58:8 *501:A 14.3357 
3 *58:8 *494:A 16.1929 
*END

*D_NET *59 0.00120213
*CONN
*I *467:B I *D sky130_fd_sc_hd__xnor2_1
*I *466:B_N I *D sky130_fd_sc_hd__nor2b_1
*I *465:X O *D sky130_fd_sc_hd__xnor3_1
*CAP
1 *467:B 0.00024343
2 *466:B_N 8.4707e-05
3 *465:X 0.000272925
4 *59:8 0.000601063
5 *466:B_N *494:C 0
6 *467:B out[6] 0
7 *467:B *87:10 0
8 *467:B *363:20 0
9 *59:8 out[6] 0
10 *59:8 *363:20 0
*RES
1 *465:X *59:8 19.9964 
2 *59:8 *466:B_N 15.5679 
3 *59:8 *467:B 19.3893 
*END

*D_NET *60 0.000661099
*CONN
*I *501:B I *D sky130_fd_sc_hd__maj3_1
*I *494:B I *D sky130_fd_sc_hd__xnor3_1
*I *466:Y O *D sky130_fd_sc_hd__nor2b_1
*CAP
1 *501:B 0.00014075
2 *494:B 0
3 *466:Y 0.000189799
4 *60:14 0.000330549
5 *501:B *444:A 0
6 *501:B *494:C 0
7 *60:14 *494:C 0
8 *466:A *60:14 0
9 *494:A *501:B 0
10 *38:10 *60:14 0
11 *39:10 *501:B 0
12 *39:10 *60:14 0
*RES
1 *466:Y *60:14 22.4429 
2 *60:14 *494:B 9.3 
3 *60:14 *501:B 12.3 
*END

*D_NET *61 0.00150108
*CONN
*I *468:B I *D sky130_fd_sc_hd__xor2_1
*I *473:C I *D sky130_fd_sc_hd__maj3_1
*I *467:Y O *D sky130_fd_sc_hd__xnor2_1
*CAP
1 *468:B 9.86109e-05
2 *473:C 2.41714e-05
3 *467:Y 0.000627756
4 *61:12 0.000750538
5 *468:B *469:B 0
6 *468:B *473:A 0
7 *468:B *363:48 0
8 *61:12 *496:B 0
9 *61:12 *500:C 0
10 *61:12 *732:CLK 0
11 *61:12 *732:RESET_B 0
12 *61:12 *66:10 0
13 *61:12 *87:10 0
14 *61:12 *363:20 0
15 *61:12 *364:16 0
16 *61:12 *364:18 0
17 *61:12 *382:85 0
18 *467:A *61:12 0
19 *473:B *468:B 0
20 *44:14 *468:B 0
*RES
1 *467:Y *61:12 32.3179 
2 *61:12 *473:C 9.83571 
3 *61:12 *468:B 11.3893 
*END

*D_NET *62 0.000376161
*CONN
*I *469:B I *D sky130_fd_sc_hd__xnor2_1
*I *468:X O *D sky130_fd_sc_hd__xor2_1
*CAP
1 *469:B 0.00018808
2 *468:X 0.00018808
3 *469:B *470:A1 0
4 *469:B *471:A2 0
5 *469:B *363:10 0
6 *469:B *363:48 0
7 *468:B *469:B 0
8 *44:14 *469:B 0
*RES
1 *468:X *469:B 31.5464 
*END

*D_NET *63 0.000714989
*CONN
*I *471:A2 I *D sky130_fd_sc_hd__a21oi_1
*I *469:Y O *D sky130_fd_sc_hd__xnor2_1
*CAP
1 *471:A2 0.000357494
2 *469:Y 0.000357494
3 *471:A2 *470:A1 0
4 *471:A2 *470:A2 0
5 *471:A2 *472:B1 0
6 *471:A2 *310:159 0
7 *471:A2 *381:195 0
8 *471:A2 *381:201 0
9 *469:B *471:A2 0
10 *44:14 *471:A2 0
*RES
1 *469:Y *471:A2 35.475 
*END

*D_NET *64 5.13376e-05
*CONN
*I *471:B1 I *D sky130_fd_sc_hd__a21oi_1
*I *470:Y O *D sky130_fd_sc_hd__o21ai_0
*CAP
1 *471:B1 2.56688e-05
2 *470:Y 2.56688e-05
3 *471:B1 *470:A2 0
*RES
1 *470:Y *471:B1 19.1357 
*END

*D_NET *65 0.00108339
*CONN
*I *472:B1 I *D sky130_fd_sc_hd__a21o_1
*I *471:Y O *D sky130_fd_sc_hd__a21oi_1
*CAP
1 *472:B1 0.000541693
2 *471:Y 0.000541693
3 *472:B1 *447:A1 0
4 *472:B1 *447:A2 0
5 *472:B1 *447:B1 0
6 *472:B1 *472:A1 0
7 *472:B1 *472:A2 0
8 *472:B1 *355:22 0
9 *472:B1 *362:31 0
10 *472:B1 *363:10 0
11 *446:C *472:B1 0
12 *471:A2 *472:B1 0
13 *40:8 *472:B1 0
*RES
1 *471:Y *472:B1 39.3321 
*END

*D_NET *66 0.00113345
*CONN
*I *496:A I *D sky130_fd_sc_hd__xnor2_1
*I *500:B I *D sky130_fd_sc_hd__maj3_1
*I *473:X O *D sky130_fd_sc_hd__maj3_1
*CAP
1 *496:A 6.20329e-05
2 *500:B 8.4707e-05
3 *473:X 0.000419986
4 *66:10 0.000566726
5 *496:A *496:B 0
6 *496:A *92:8 0
7 *500:B *496:B 0
8 *500:B *500:C 0
9 *500:B *364:16 0
10 *66:10 *363:10 0
11 *66:10 *363:12 0
12 *66:10 *363:20 0
13 *61:12 *66:10 0
*RES
1 *473:X *66:10 27.8357 
2 *66:10 *500:B 11.0679 
3 *66:10 *496:A 10.6571 
*END

*D_NET *67 0.000614489
*CONN
*I *491:A I *D sky130_fd_sc_hd__and2_0
*I *492:A I *D sky130_fd_sc_hd__xnor2_1
*I *474:X O *D sky130_fd_sc_hd__maj3_1
*CAP
1 *491:A 8.40653e-05
2 *492:A 4.38508e-05
3 *474:X 0.000179328
4 *67:10 0.000307244
5 *491:A *492:B 0
6 *492:A *430:A 0
7 *492:A *492:B 0
8 *67:10 *415:B 0
9 *67:10 *371:51 0
10 *26:12 *491:A 0
11 *26:12 *492:A 0
12 *26:12 *67:10 0
*RES
1 *474:X *67:10 22.3714 
2 *67:10 *492:A 10.2464 
3 *67:10 *491:A 11.0857 
*END

*D_NET *68 0.000933637
*CONN
*I *502:A I *D sky130_fd_sc_hd__maj3_1
*I *490:A I *D sky130_fd_sc_hd__xor3_1
*I *475:X O *D sky130_fd_sc_hd__maj3_1
*CAP
1 *502:A 8.4707e-05
2 *490:A 0
3 *475:X 0.000382112
4 *68:12 0.000466819
5 *502:A *490:B 0
6 *502:A *371:66 0
7 *68:12 *343:36 0
8 *68:12 *369:48 0
9 *68:12 *370:46 0
10 *68:12 *372:15 0
11 *456:C *68:12 0
*RES
1 *475:X *68:12 26.6036 
2 *68:12 *490:A 9.3 
3 *68:12 *502:A 11.0679 
*END

*D_NET *69 0.000773088
*CONN
*I *503:A I *D sky130_fd_sc_hd__maj3_1
*I *485:A I *D sky130_fd_sc_hd__xor3_1
*I *476:X O *D sky130_fd_sc_hd__maj3_1
*CAP
1 *503:A 0.000167686
2 *485:A 0
3 *476:X 0.000218859
4 *69:10 0.000386544
5 *503:A *503:C 0
6 *503:A *343:36 0
7 *503:A *372:15 0
8 *503:A *383:9 0
9 *69:10 *485:C 0
10 *69:10 *503:B 0
11 *69:10 *503:C 0
12 *69:10 *77:8 0
13 *69:10 *383:9 0
14 *48:10 *69:10 0
*RES
1 *476:X *69:10 18.4429 
2 *69:10 *485:A 13.8 
3 *69:10 *503:A 17.5143 
*END

*D_NET *70 0.000438201
*CONN
*I *504:B I *D sky130_fd_sc_hd__maj3_1
*I *480:B I *D sky130_fd_sc_hd__xnor3_1
*I *477:Y O *D sky130_fd_sc_hd__nand2_1
*CAP
1 *504:B 0.00014674
2 *480:B 0
3 *477:Y 7.23606e-05
4 *70:10 0.0002191
5 *504:B *454:B 0
6 *504:B *480:C 0
7 *504:B *504:C 0
8 *504:B *368:13 0
9 *70:10 *344:50 0
10 *70:10 *368:9 0
11 *480:A *504:B 0
*RES
1 *477:Y *70:10 19.9429 
2 *70:10 *480:B 9.3 
3 *70:10 *504:B 12.3 
*END

*D_NET *71 0.00110431
*CONN
*I *504:C I *D sky130_fd_sc_hd__maj3_1
*I *480:C I *D sky130_fd_sc_hd__xnor3_1
*I *478:Y O *D sky130_fd_sc_hd__nand2_1
*CAP
1 *504:C 9.71136e-05
2 *480:C 0.00035594
3 *478:Y 9.91025e-05
4 *71:10 0.000552157
5 *480:C *459:A 0
6 *480:C *368:13 0
7 *504:C *454:B 0
8 *71:10 *454:B 0
9 *71:10 *347:5 0
10 *71:10 *369:97 0
11 *480:A *504:C 0
12 *504:B *480:C 0
13 *504:B *504:C 0
14 *48:10 *480:C 0
15 *48:10 *504:C 0
*RES
1 *478:Y *71:10 20.55 
2 *71:10 *480:C 16.7286 
3 *71:10 *504:C 11.3893 
*END

*D_NET *72 0.00240008
*CONN
*I *599:A1 I *D sky130_fd_sc_hd__o211a_1
*I *569:A_N I *D sky130_fd_sc_hd__nand3b_1
*I *536:A3 I *D sky130_fd_sc_hd__a31oi_1
*I *507:A I *D sky130_fd_sc_hd__xnor3_1
*I *534:A I *D sky130_fd_sc_hd__maj3_1
*I *479:X O *D sky130_fd_sc_hd__and2_0
*CAP
1 *599:A1 0.00014876
2 *569:A_N 8.4707e-05
3 *536:A3 8.04288e-05
4 *507:A 0.000111873
5 *534:A 0.000135891
6 *479:X 0
7 *72:57 0.000421345
8 *72:42 0.000635832
9 *72:8 0.000330743
10 *72:6 0.000450504
11 *507:A *506:A 0
12 *507:A *534:B 0
13 *507:A *96:14 0
14 *507:A *97:6 0
15 *507:A *125:12 0
16 *534:A *505:B 0
17 *534:A *507:C 0
18 *534:A *534:B 0
19 *534:A *534:C 0
20 *534:A *370:93 0
21 *536:A3 *536:A1 0
22 *536:A3 *370:117 0
23 *536:A3 *373:76 0
24 *569:A_N *574:A 0
25 *569:A_N *574:B 0
26 *569:A_N *168:16 0
27 *599:A1 *574:B 0
28 *599:A1 *599:A2 0
29 *599:A1 *158:16 0
30 *599:A1 *164:14 0
31 *599:A1 *166:16 0
32 *599:A1 *374:9 0
33 *72:8 *534:C 0
34 *72:8 *98:12 0
35 *72:8 *370:93 0
36 *72:42 *506:A 0
37 *72:42 *535:A1 0
38 *72:42 *536:B1 0
39 *72:42 *98:12 0
40 *72:42 *125:12 0
41 *72:42 *370:93 0
42 *72:42 *370:106 0
43 *72:57 *536:A1 0
44 *72:57 *574:A 0
45 *72:57 *168:16 0
46 *72:57 *373:76 0
47 *72:57 *374:9 0
*RES
1 *479:X *72:6 13.8 
2 *72:6 *72:8 1.94643 
3 *72:8 *534:A 16.8 
4 *72:8 *507:A 16.3179 
5 *72:6 *72:42 13 
6 *72:42 *536:A3 10.9786 
7 *72:42 *72:57 8.71428 
8 *72:57 *569:A_N 15.5679 
9 *72:57 *599:A1 17.1929 
*END

*D_NET *73 0.00137961
*CONN
*I *503:B I *D sky130_fd_sc_hd__maj3_1
*I *485:B I *D sky130_fd_sc_hd__xor3_1
*I *480:X O *D sky130_fd_sc_hd__xnor3_1
*CAP
1 *503:B 0.000130438
2 *485:B 0
3 *480:X 0.000559366
4 *73:14 0.000689804
5 *503:B *482:B 0
6 *503:B *503:C 0
7 *503:B *343:36 0
8 *73:14 *459:A 0
9 *73:14 *484:B 0
10 *73:14 *484:C 0
11 *73:14 *514:B 0
12 *73:14 *514:C 0
13 *73:14 *343:36 0
14 *73:14 *343:98 0
15 *514:A *73:14 0
16 *48:10 *73:14 0
17 *53:8 *73:14 0
18 *69:10 *503:B 0
*RES
1 *480:X *73:14 21.1929 
2 *73:14 *485:B 9.3 
3 *73:14 *503:B 21.2107 
*END

*D_NET *74 0.00123803
*CONN
*I *514:B I *D sky130_fd_sc_hd__maj3_1
*I *484:B I *D sky130_fd_sc_hd__xnor3_1
*I *481:Y O *D sky130_fd_sc_hd__nand2_1
*CAP
1 *514:B 0.00016428
2 *484:B 0.000171193
3 *481:Y 0.000283543
4 *74:8 0.000619016
5 *484:B *459:B 0
6 *484:B *75:10 0
7 *484:B *343:22 0
8 *514:B *514:C 0
9 *74:8 *459:B 0
10 *74:8 *106:12 0
11 *74:8 *372:32 0
12 *514:A *484:B 0
13 *514:A *514:B 0
14 *48:10 *484:B 0
15 *53:8 *484:B 0
16 *73:14 *484:B 0
17 *73:14 *514:B 0
*RES
1 *481:Y *74:8 20.3 
2 *74:8 *484:B 17.6036 
3 *74:8 *514:B 17.2286 
*END

*D_NET *75 0.000727586
*CONN
*I *514:C I *D sky130_fd_sc_hd__maj3_1
*I *484:C I *D sky130_fd_sc_hd__xnor3_1
*I *482:Y O *D sky130_fd_sc_hd__nand2_1
*CAP
1 *514:C 0.000108647
2 *484:C 0.000124066
3 *482:Y 0.00013108
4 *75:10 0.000363793
5 *514:C *383:9 0
6 *75:10 *343:7 0
7 *75:10 *369:80 0
8 *75:10 *383:9 0
9 *484:B *75:10 0
10 *514:A *514:C 0
11 *514:B *514:C 0
12 *48:10 *484:C 0
13 *48:10 *75:10 0
14 *73:14 *484:C 0
15 *73:14 *514:C 0
*RES
1 *482:Y *75:10 16.6929 
2 *75:10 *484:C 16.3893 
3 *75:10 *514:C 16.2821 
*END

*D_NET *76 0.000787514
*CONN
*I *511:A I *D sky130_fd_sc_hd__xor3_1
*I *546:A I *D sky130_fd_sc_hd__maj3_1
*I *483:Y O *D sky130_fd_sc_hd__nand2_1
*CAP
1 *511:A 0
2 *546:A 0.000288515
3 *483:Y 0.000105242
4 *76:8 0.000393757
5 *546:A *506:B 0
6 *546:A *533:C 0
7 *546:A *124:10 0
8 *546:A *137:10 0
9 *546:A *343:98 0
10 *546:A *372:32 0
11 *76:8 *483:B 0
12 *76:8 *511:B 0
13 *76:8 *372:32 0
14 *76:8 *372:46 0
15 *76:8 *373:76 0
*RES
1 *483:Y *76:8 11.4964 
2 *76:8 *546:A 24.4786 
3 *76:8 *511:A 9.3 
*END

*D_NET *77 0.000929788
*CONN
*I *503:C I *D sky130_fd_sc_hd__maj3_1
*I *485:C I *D sky130_fd_sc_hd__xor3_1
*I *484:X O *D sky130_fd_sc_hd__xnor3_1
*CAP
1 *503:C 0.000151702
2 *485:C 0.000236211
3 *484:X 7.69814e-05
4 *77:8 0.000464894
5 *485:C *482:B 0
6 *485:C *343:36 0
7 *503:C *482:B 0
8 *503:C *383:9 0
9 *77:8 *482:B 0
10 *77:8 *383:9 0
11 *456:C *485:C 0
12 *503:A *503:C 0
13 *503:B *503:C 0
14 *48:10 *485:C 0
15 *69:10 *485:C 0
16 *69:10 *503:C 0
17 *69:10 *77:8 0
*RES
1 *484:X *77:8 15.5946 
2 *77:8 *485:C 18.8446 
3 *77:8 *503:C 17.4696 
*END

*D_NET *78 0.000687217
*CONN
*I *490:B I *D sky130_fd_sc_hd__xor3_1
*I *502:B I *D sky130_fd_sc_hd__maj3_1
*I *485:X O *D sky130_fd_sc_hd__xor3_1
*CAP
1 *490:B 0.00016428
2 *502:B 0
3 *485:X 0.000179328
4 *78:10 0.000343609
5 *490:B *490:C 0
6 *490:B *502:C 0
7 *490:B *371:66 0
8 *78:10 out[10] 0
9 *78:10 *369:48 0
10 *502:A *490:B 0
*RES
1 *485:X *78:10 22.3714 
2 *78:10 *502:B 9.3 
3 *78:10 *490:B 12.7286 
*END

*D_NET *79 0.0005597
*CONN
*I *489:A I *D sky130_fd_sc_hd__xor2_1
*I *488:A I *D sky130_fd_sc_hd__nor2_1
*I *486:X O *D sky130_fd_sc_hd__maj3_1
*CAP
1 *489:A 7.23606e-05
2 *488:A 0.000125777
3 *486:X 8.17123e-05
4 *79:6 0.00027985
5 *488:A *341:65 0
6 *488:A *375:15 0
7 *489:A *368:76 0
8 *489:A *370:46 0
9 *79:6 *341:65 0
10 *79:6 *375:15 0
*RES
1 *486:X *79:6 11.0679 
2 *79:6 *488:A 12.05 
3 *79:6 *489:A 19.9429 
*END

*D_NET *80 0.000586239
*CONN
*I *488:B I *D sky130_fd_sc_hd__nor2_1
*I *489:B I *D sky130_fd_sc_hd__xor2_1
*I *487:Y O *D sky130_fd_sc_hd__nand2_1
*CAP
1 *488:B 0.000125844
2 *489:B 4.62038e-05
3 *487:Y 0.000121071
4 *80:6 0.000293119
5 *488:B *81:12 0
6 *488:B *82:10 0
7 *488:B *370:46 0
8 *489:B *487:B 0
9 *80:6 *515:A 0
10 *80:6 *341:65 0
*RES
1 *487:Y *80:6 11.8893 
2 *80:6 *489:B 10.2643 
3 *80:6 *488:B 21.1571 
*END

*D_NET *81 0.000678878
*CONN
*I *530:A I *D sky130_fd_sc_hd__maj3_1
*I *518:A I *D sky130_fd_sc_hd__xor3_1
*I *488:Y O *D sky130_fd_sc_hd__nor2_1
*CAP
1 *530:A 8.17123e-05
2 *518:A 0
3 *488:Y 0.000257727
4 *81:12 0.000339439
5 *530:A *518:B 0
6 *81:12 *518:B 0
7 *81:12 *518:C 0
8 *81:12 *82:10 0
9 *81:12 *369:48 0
10 *81:12 *370:46 0
11 *488:B *81:12 0
*RES
1 *488:Y *81:12 24.0321 
2 *81:12 *518:A 9.3 
3 *81:12 *530:A 11.0679 
*END

*D_NET *82 0.0013636
*CONN
*I *502:C I *D sky130_fd_sc_hd__maj3_1
*I *490:C I *D sky130_fd_sc_hd__xor3_1
*I *489:X O *D sky130_fd_sc_hd__xor2_1
*CAP
1 *502:C 0.000156152
2 *490:C 0.000319576
3 *489:X 0.00020607
4 *82:10 0.000681798
5 *490:C *458:A 0
6 *490:C *343:53 0
7 *490:C *375:15 0
8 *502:C *371:66 0
9 *502:C *375:15 0
10 *82:10 *369:48 0
11 *82:10 *370:46 0
12 *488:B *82:10 0
13 *490:B *490:C 0
14 *490:B *502:C 0
15 *52:12 *490:C 0
16 *81:12 *82:10 0
*RES
1 *489:X *82:10 22.9786 
2 *82:10 *490:C 15.9071 
3 *82:10 *502:C 12.6214 
*END

*D_NET *83 0.00169371
*CONN
*I *492:B I *D sky130_fd_sc_hd__xnor2_1
*I *491:B I *D sky130_fd_sc_hd__and2_0
*I *490:X O *D sky130_fd_sc_hd__xor3_1
*CAP
1 *492:B 0.000169414
2 *491:B 0
3 *490:X 0.000677441
4 *83:14 0.000846855
5 *492:B *430:A 0
6 *492:B *331:15 0
7 *83:14 out[0] 0
8 *83:14 *437:A 0
9 *83:14 *457:B 0
10 *83:14 *458:A 0
11 *83:14 *331:15 0
12 *83:14 *371:51 0
13 *83:14 *371:66 0
14 *83:14 *373:21 0
15 *460:C *83:14 0
16 *491:A *492:B 0
17 *492:A *492:B 0
18 *26:12 *492:B 0
19 *26:12 *83:14 0
20 *31:29 *83:14 0
21 *52:12 *83:14 0
*RES
1 *490:X *83:14 33.1214 
2 *83:14 *491:B 9.3 
3 *83:14 *492:B 13.05 
*END

*D_NET *84 0.000610607
*CONN
*I *519:A I *D sky130_fd_sc_hd__and2_0
*I *520:A I *D sky130_fd_sc_hd__nor2_1
*I *491:X O *D sky130_fd_sc_hd__and2_0
*CAP
1 *519:A 0
2 *520:A 5.43322e-05
3 *491:X 0.000250971
4 *84:14 0.000305303
5 *520:A *520:B 0
6 *520:A *110:14 0
7 *84:14 out[0] 0
8 *84:14 *373:19 0
*RES
1 *491:X *84:14 24.05 
2 *84:14 *520:A 10.5679 
3 *84:14 *519:A 9.3 
*END

*D_NET *85 0.00218045
*CONN
*I *493:A I *D sky130_fd_sc_hd__clkinv_1
*I *494:C I *D sky130_fd_sc_hd__xnor3_1
*I *492:Y O *D sky130_fd_sc_hd__xnor2_1
*CAP
1 *493:A 0
2 *494:C 0.000509098
3 *492:Y 0.000581129
4 *85:12 0.00109023
5 *494:C *501:C 0
6 *85:12 *415:B 0
7 *85:12 *421:A 0
8 *85:12 *430:B 0
9 *85:12 *501:C 0
10 *85:12 *556:B1 0
11 *85:12 *93:8 0
12 *85:12 *93:19 0
13 *85:12 *332:14 0
14 *85:12 *373:19 0
15 *466:B_N *494:C 0
16 *467:A *494:C 0
17 *501:A *494:C 0
18 *501:B *494:C 0
19 *39:10 *494:C 0
20 *60:14 *494:C 0
*RES
1 *492:Y *85:12 30.9786 
2 *85:12 *494:C 19.925 
3 *85:12 *493:A 9.3 
*END

*D_NET *86 0.000169414
*CONN
*I *501:C I *D sky130_fd_sc_hd__maj3_1
*I *493:Y O *D sky130_fd_sc_hd__clkinv_1
*CAP
1 *501:C 8.4707e-05
2 *493:Y 8.4707e-05
3 *501:C *93:8 0
4 *494:C *501:C 0
5 *85:12 *501:C 0
*RES
1 *493:Y *501:C 20.3679 
*END

*D_NET *87 0.000738215
*CONN
*I *500:C I *D sky130_fd_sc_hd__maj3_1
*I *495:B I *D sky130_fd_sc_hd__xor2_1
*I *494:X O *D sky130_fd_sc_hd__xnor3_1
*CAP
1 *500:C 0.00016411
2 *495:B 0
3 *494:X 0.000204997
4 *87:10 0.000369108
5 *500:C out[6] 0
6 *500:C *496:B 0
7 *500:C *364:16 0
8 *500:C *364:18 0
9 *87:10 out[6] 0
10 *87:10 *363:20 0
11 *467:B *87:10 0
12 *500:B *500:C 0
13 *61:12 *500:C 0
14 *61:12 *87:10 0
*RES
1 *494:X *87:10 18.4071 
2 *87:10 *495:B 13.8 
3 *87:10 *500:C 17.4071 
*END

*D_NET *88 0.000446119
*CONN
*I *496:B I *D sky130_fd_sc_hd__xnor2_1
*I *495:X O *D sky130_fd_sc_hd__xor2_1
*CAP
1 *496:B 0.00022306
2 *495:X 0.00022306
3 *496:B *498:B1 0
4 *496:B *355:22 0
5 *496:B *363:20 0
6 *467:A *496:B 0
7 *496:A *496:B 0
8 *500:B *496:B 0
9 *500:C *496:B 0
10 *61:12 *496:B 0
*RES
1 *495:X *496:B 32.35 
*END

*D_NET *89 0.000239575
*CONN
*I *498:A2 I *D sky130_fd_sc_hd__a21oi_1
*I *496:Y O *D sky130_fd_sc_hd__xnor2_1
*CAP
1 *498:A2 0.000119788
2 *496:Y 0.000119788
3 *498:A2 *92:8 0
*RES
1 *496:Y *498:A2 21.1 
*END

*D_NET *90 0.000549989
*CONN
*I *498:B1 I *D sky130_fd_sc_hd__a21oi_1
*I *497:Y O *D sky130_fd_sc_hd__o21ai_0
*CAP
1 *498:B1 0.000274995
2 *497:Y 0.000274995
3 *498:B1 *497:A1 0
4 *498:B1 *498:A1 0
5 *498:B1 *499:B1 0
6 *498:B1 *363:20 0
7 *498:B1 *364:10 0
8 *496:B *498:B1 0
*RES
1 *497:Y *498:B1 33.7607 
*END

*D_NET *91 0.000790491
*CONN
*I *499:B1 I *D sky130_fd_sc_hd__a21o_1
*I *498:Y O *D sky130_fd_sc_hd__a21oi_1
*CAP
1 *499:B1 0.000395245
2 *498:Y 0.000395245
3 *499:B1 *497:A1 0
4 *499:B1 *498:A1 0
5 *499:B1 *499:A1 0
6 *499:B1 *733:CLK 0
7 *499:B1 *364:10 0
8 *499:B1 *364:16 0
9 *499:B1 *379:22 0
10 *499:B1 *379:26 0
11 *498:B1 *499:B1 0
12 *733:D *499:B1 0
*RES
1 *498:Y *499:B1 36.0286 
*END

*D_NET *92 0.00109007
*CONN
*I *529:B I *D sky130_fd_sc_hd__maj3_1
*I *525:A I *D sky130_fd_sc_hd__xnor2_1
*I *500:X O *D sky130_fd_sc_hd__maj3_1
*CAP
1 *529:B 0.000161927
2 *525:A 2.0535e-05
3 *500:X 0.000362572
4 *92:8 0.000545034
5 *529:B *524:A 0
6 *529:B *524:B 0
7 *529:B *525:B 0
8 *529:B *527:A2 0
9 *529:B *528:B1 0
10 *92:8 *445:A 0
11 *92:8 *528:A2 0
12 *92:8 *528:B1 0
13 *92:8 *364:10 0
14 *92:8 *364:16 0
15 *445:B *92:8 0
16 *496:A *92:8 0
17 *498:A2 *92:8 0
*RES
1 *500:X *92:8 16.8357 
2 *92:8 *525:A 9.72857 
3 *92:8 *529:B 12.7107 
*END

*D_NET *93 0.00154098
*CONN
*I *557:A1 I *D sky130_fd_sc_hd__o211ai_1
*I *556:A1 I *D sky130_fd_sc_hd__a21oi_1
*I *523:A I *D sky130_fd_sc_hd__xor2_1
*I *501:X O *D sky130_fd_sc_hd__maj3_1
*CAP
1 *557:A1 0.000222677
2 *556:A1 0
3 *523:A 7.74342e-05
4 *501:X 0.000134333
5 *93:19 0.000558724
6 *93:8 0.000547815
7 *523:A *523:B 0
8 *523:A *525:B 0
9 *557:A1 *521:A 0
10 *557:A1 *557:B1 0
11 *557:A1 *558:A 0
12 *557:A1 *111:16 0
13 *557:A1 *112:10 0
14 *557:A1 *367:22 0
15 *93:19 *523:B 0
16 *93:19 *556:B1 0
17 *93:19 *112:10 0
18 *93:19 *115:10 0
19 *501:C *93:8 0
20 *85:12 *93:8 0
21 *85:12 *93:19 0
*RES
1 *501:X *93:8 12.1036 
2 *93:8 *523:A 11.8 
3 *93:8 *93:19 7.10714 
4 *93:19 *556:A1 9.3 
5 *93:19 *557:A1 13.9786 
*END

*D_NET *94 0.000866033
*CONN
*I *530:B I *D sky130_fd_sc_hd__maj3_1
*I *518:B I *D sky130_fd_sc_hd__xor3_1
*I *502:X O *D sky130_fd_sc_hd__maj3_1
*CAP
1 *530:B 0
2 *518:B 0.00014674
3 *502:X 0.000286277
4 *94:10 0.000433016
5 *518:B *518:C 0
6 *94:10 out[10] 0
7 *94:10 *109:10 0
8 *94:10 *369:48 0
9 *530:A *518:B 0
10 *81:12 *518:B 0
*RES
1 *502:X *94:10 24.8 
2 *94:10 *518:B 12.3 
3 *94:10 *530:B 9.3 
*END

*D_NET *95 0.000602004
*CONN
*I *532:A I *D sky130_fd_sc_hd__maj3_1
*I *517:A I *D sky130_fd_sc_hd__xor3_1
*I *503:X O *D sky130_fd_sc_hd__maj3_1
*CAP
1 *532:A 8.4707e-05
2 *517:A 0
3 *503:X 0.000216295
4 *95:12 0.000301002
5 *532:A *517:B 0
6 *532:A *105:10 0
7 *95:12 *104:14 0
8 *95:12 *383:9 0
*RES
1 *503:X *95:12 23.2107 
2 *95:12 *517:A 9.3 
3 *95:12 *532:A 11.0679 
*END

*D_NET *96 0.00129257
*CONN
*I *533:A I *D sky130_fd_sc_hd__maj3_1
*I *512:A I *D sky130_fd_sc_hd__xnor3_1
*I *504:X O *D sky130_fd_sc_hd__maj3_1
*CAP
1 *533:A 0
2 *512:A 0.000194655
3 *504:X 0.000451628
4 *96:14 0.000646283
5 *512:A *512:B 0
6 *512:A *512:C 0
7 *512:A *533:C 0
8 *512:A *368:49 0
9 *96:14 *454:B 0
10 *96:14 *478:A 0
11 *96:14 *506:B 0
12 *96:14 *507:C 0
13 *96:14 *512:B 0
14 *96:14 *99:6 0
15 *96:14 *347:5 0
16 *96:14 *347:16 0
17 *96:14 *360:66 0
18 *96:14 *368:13 0
19 *96:14 *369:97 0
20 *507:A *96:14 0
*RES
1 *504:X *96:14 28.0679 
2 *96:14 *512:A 13.5679 
3 *96:14 *533:A 9.3 
*END

*D_NET *97 0.00058473
*CONN
*I *507:B I *D sky130_fd_sc_hd__xnor3_1
*I *534:B I *D sky130_fd_sc_hd__maj3_1
*I *505:X O *D sky130_fd_sc_hd__and2_0
*CAP
1 *507:B 8.57316e-05
2 *534:B 8.55626e-05
3 *505:X 0.000121071
4 *97:6 0.000292365
5 *507:B *534:C 0
6 *507:B *125:12 0
7 *534:B *505:B 0
8 *97:6 *505:A 0
9 *97:6 *505:B 0
10 *97:6 *125:12 0
11 *507:A *534:B 0
12 *507:A *97:6 0
13 *534:A *534:B 0
*RES
1 *505:X *97:6 11.8893 
2 *97:6 *534:B 11.0857 
3 *97:6 *507:B 20.2464 
*END

*D_NET *98 0.000938765
*CONN
*I *507:C I *D sky130_fd_sc_hd__xnor3_1
*I *534:C I *D sky130_fd_sc_hd__maj3_1
*I *506:X O *D sky130_fd_sc_hd__and2_0
*CAP
1 *507:C 0.000161938
2 *534:C 0.00013135
3 *506:X 0.000176095
4 *98:12 0.000469383
5 *507:C *478:A 0
6 *507:C *506:A 0
7 *507:C *506:B 0
8 *534:C *125:12 0
9 *534:C *370:78 0
10 *534:C *370:93 0
11 *98:12 *479:B 0
12 *98:12 *506:A 0
13 *98:12 *125:12 0
14 *507:B *534:C 0
15 *534:A *507:C 0
16 *534:A *534:C 0
17 *72:8 *534:C 0
18 *72:8 *98:12 0
19 *72:42 *98:12 0
20 *96:14 *507:C 0
*RES
1 *506:X *98:12 18.4607 
2 *98:12 *534:C 16.6571 
3 *98:12 *507:C 17.6214 
*END

*D_NET *99 0.000535622
*CONN
*I *533:B I *D sky130_fd_sc_hd__maj3_1
*I *512:B I *D sky130_fd_sc_hd__xnor3_1
*I *507:X O *D sky130_fd_sc_hd__xnor3_1
*CAP
1 *533:B 0
2 *512:B 0.00014674
3 *507:X 0.000121071
4 *99:6 0.000267811
5 *512:B *533:C 0
6 *99:6 *533:C 0
7 *99:6 *124:10 0
8 *512:A *512:B 0
9 *96:14 *512:B 0
10 *96:14 *99:6 0
*RES
1 *507:X *99:6 11.8893 
2 *99:6 *512:B 12.3 
3 *99:6 *533:B 9.3 
*END

*D_NET *100 0.000710168
*CONN
*I *511:B I *D sky130_fd_sc_hd__xor3_1
*I *546:B I *D sky130_fd_sc_hd__maj3_1
*I *508:Y O *D sky130_fd_sc_hd__nand2_1
*CAP
1 *511:B 0.000105242
2 *546:B 0.000180254
3 *508:Y 6.95881e-05
4 *100:8 0.000355084
5 *511:B *483:B 0
6 *511:B *372:32 0
7 *511:B *373:76 0
8 *546:B *533:C 0
9 *546:B *546:C 0
10 *546:B *137:10 0
11 *546:B *343:98 0
12 *100:8 *101:10 0
13 *100:8 *343:98 0
14 *76:8 *511:B 0
*RES
1 *508:Y *100:8 15.4429 
2 *100:8 *546:B 17.7107 
3 *100:8 *511:B 15.9964 
*END

*D_NET *101 0.000689772
*CONN
*I *511:C I *D sky130_fd_sc_hd__xor3_1
*I *546:C I *D sky130_fd_sc_hd__maj3_1
*I *509:Y O *D sky130_fd_sc_hd__nand2_1
*CAP
1 *511:C 0.000117659
2 *546:C 0.000125844
3 *509:Y 0.000101382
4 *101:10 0.000344886
5 *511:C *372:32 0
6 *511:C *373:61 0
7 *546:C *343:98 0
8 *546:C *345:54 0
9 *101:10 *345:54 0
10 *101:10 *373:61 0
11 *101:10 *373:76 0
12 *546:B *546:C 0
13 *100:8 *101:10 0
*RES
1 *509:Y *101:10 16.3893 
2 *101:10 *546:C 16.6571 
3 *101:10 *511:C 16.3893 
*END

*D_NET *102 0.000655012
*CONN
*I *540:A I *D sky130_fd_sc_hd__xnor3_1
*I *578:A I *D sky130_fd_sc_hd__maj3_1
*I *510:Y O *D sky130_fd_sc_hd__nand2_1
*CAP
1 *540:A 0.000104386
2 *578:A 0.000153512
3 *510:Y 6.96077e-05
4 *102:8 0.000327506
5 *540:A *540:B 0
6 *540:A *344:15 0
7 *540:A *345:79 0
8 *578:A *537:A 0
9 *578:A *578:B 0
10 *578:A *578:C 0
11 *578:A *344:7 0
12 *578:A *344:15 0
13 *102:8 *537:B 0
14 *102:8 *129:10 0
*RES
1 *510:Y *102:8 15.4429 
2 *102:8 *578:A 17.1036 
3 *102:8 *540:A 15.9786 
*END

*D_NET *103 0.00170963
*CONN
*I *533:C I *D sky130_fd_sc_hd__maj3_1
*I *512:C I *D sky130_fd_sc_hd__xnor3_1
*I *511:X O *D sky130_fd_sc_hd__xor3_1
*CAP
1 *533:C 0.000555515
2 *512:C 0.000126047
3 *511:X 0.000173251
4 *103:10 0.000854814
5 *512:C *345:54 0
6 *512:C *368:49 0
7 *512:C *372:32 0
8 *533:C *506:B 0
9 *533:C *124:10 0
10 *533:C *137:10 0
11 *533:C *368:49 0
12 *533:C *372:32 0
13 *103:10 *137:10 0
14 *103:10 *345:54 0
15 *103:10 *372:32 0
16 *512:A *512:C 0
17 *512:A *533:C 0
18 *512:B *533:C 0
19 *546:A *533:C 0
20 *546:B *533:C 0
21 *99:6 *533:C 0
*RES
1 *511:X *103:10 17.7107 
2 *103:10 *512:C 16.5143 
3 *103:10 *533:C 25.6929 
*END

*D_NET *104 0.000984337
*CONN
*I *532:B I *D sky130_fd_sc_hd__maj3_1
*I *517:B I *D sky130_fd_sc_hd__xor3_1
*I *512:X O *D sky130_fd_sc_hd__xnor3_1
*CAP
1 *532:B 0
2 *517:B 0.000192088
3 *512:X 0.00030008
4 *104:14 0.000492168
5 *517:B *532:C 0
6 *517:B *105:10 0
7 *517:B *106:12 0
8 *104:14 *532:C 0
9 *104:14 *106:12 0
10 *104:14 *368:49 0
11 *104:14 *371:80 0
12 *532:A *517:B 0
13 *95:12 *104:14 0
*RES
1 *512:X *104:14 24.9786 
2 *104:14 *517:B 13.5857 
3 *104:14 *532:B 9.3 
*END

*D_NET *105 0.00130517
*CONN
*I *516:A I *D sky130_fd_sc_hd__xnor3_1
*I *531:A I *D sky130_fd_sc_hd__maj3_1
*I *513:Y O *D sky130_fd_sc_hd__nand2_1
*CAP
1 *516:A 0
2 *531:A 0.000288515
3 *513:Y 0.000364069
4 *105:10 0.000652584
5 *531:A *531:B 0
6 *531:A *123:12 0
7 *531:A *373:44 0
8 *531:A *374:155 0
9 *531:A *383:9 0
10 *105:10 *513:A 0
11 *105:10 *532:C 0
12 *105:10 *106:12 0
13 *105:10 *107:8 0
14 *105:10 *374:155 0
15 *105:10 *375:42 0
16 *517:B *105:10 0
17 *532:A *105:10 0
*RES
1 *513:Y *105:10 16.9607 
2 *105:10 *531:A 24.4786 
3 *105:10 *516:A 9.3 
*END

*D_NET *106 0.00150774
*CONN
*I *516:B I *D sky130_fd_sc_hd__xnor3_1
*I *531:B I *D sky130_fd_sc_hd__maj3_1
*I *514:X O *D sky130_fd_sc_hd__maj3_1
*CAP
1 *516:B 0
2 *531:B 0.000242848
3 *514:X 0.000511021
4 *106:12 0.000753869
5 *531:B *531:C 0
6 *531:B *373:44 0
7 *531:B *375:42 0
8 *531:B *383:9 0
9 *106:12 *481:B 0
10 *106:12 *123:12 0
11 *106:12 *371:80 0
12 *106:12 *372:32 0
13 *106:12 *374:155 0
14 *517:B *106:12 0
15 *531:A *531:B 0
16 *74:8 *106:12 0
17 *104:14 *106:12 0
18 *105:10 *106:12 0
*RES
1 *514:X *106:12 29.7107 
2 *106:12 *531:B 23.55 
3 *106:12 *516:B 9.3 
*END

*D_NET *107 0.00087369
*CONN
*I *516:C I *D sky130_fd_sc_hd__xnor3_1
*I *531:C I *D sky130_fd_sc_hd__maj3_1
*I *515:Y O *D sky130_fd_sc_hd__nand2_1
*CAP
1 *516:C 0
2 *531:C 0.000230211
3 *515:Y 0.000206634
4 *107:8 0.000436845
5 *531:C out[10] 0
6 *531:C *513:A 0
7 *531:C *373:44 0
8 *531:C *375:42 0
9 *531:C *383:9 0
10 *107:8 *513:A 0
11 *107:8 *517:C 0
12 *107:8 *532:C 0
13 *107:8 *375:42 0
14 *531:B *531:C 0
15 *105:10 *107:8 0
*RES
1 *515:Y *107:8 13.55 
2 *107:8 *531:C 23.3357 
3 *107:8 *516:C 9.3 
*END

*D_NET *108 0.00124656
*CONN
*I *532:C I *D sky130_fd_sc_hd__maj3_1
*I *517:C I *D sky130_fd_sc_hd__xor3_1
*I *516:X O *D sky130_fd_sc_hd__xnor3_1
*CAP
1 *532:C 0.000409845
2 *517:C 0.000100964
3 *516:X 0.000112474
4 *108:10 0.000623282
5 *517:C *513:A 0
6 *108:10 *375:15 0
7 *108:10 *383:9 0
8 *517:B *532:C 0
9 *104:14 *532:C 0
10 *105:10 *532:C 0
11 *107:8 *517:C 0
12 *107:8 *532:C 0
*RES
1 *516:X *108:10 20.8536 
2 *108:10 *517:C 11.5321 
3 *108:10 *532:C 17.8536 
*END

*D_NET *109 0.00128277
*CONN
*I *530:C I *D sky130_fd_sc_hd__maj3_1
*I *518:C I *D sky130_fd_sc_hd__xor3_1
*I *517:X O *D sky130_fd_sc_hd__xor3_1
*CAP
1 *530:C 9.71136e-05
2 *518:C 0.00037562
3 *517:X 0.000168651
4 *109:10 0.000641385
5 *518:C *373:44 0
6 *530:C *373:44 0
7 *530:C *375:42 0
8 *109:10 *515:B 0
9 *109:10 *341:57 0
10 *109:10 *369:48 0
11 *518:B *518:C 0
12 *81:12 *518:C 0
13 *94:10 *109:10 0
*RES
1 *517:X *109:10 22.0679 
2 *109:10 *518:C 17.1393 
3 *109:10 *530:C 11.3893 
*END

*D_NET *110 0.00141859
*CONN
*I *520:B I *D sky130_fd_sc_hd__nor2_1
*I *519:B I *D sky130_fd_sc_hd__and2_0
*I *518:X O *D sky130_fd_sc_hd__xor3_1
*CAP
1 *520:B 0.000193371
2 *519:B 0
3 *518:X 0.000515923
4 *110:14 0.000709294
5 *520:B *556:B1 0
6 *520:B *111:12 0
7 *520:B *112:10 0
8 *520:B *332:14 0
9 *110:14 *404:A 0
10 *110:14 *418:A 0
11 *110:14 *418:B 0
12 *110:14 *111:12 0
13 *110:14 *111:16 0
14 *110:14 *332:14 0
15 *110:14 *343:70 0
16 *520:A *520:B 0
17 *520:A *110:14 0
*RES
1 *518:X *110:14 29.5679 
2 *110:14 *519:B 9.3 
3 *110:14 *520:B 13.675 
*END

*D_NET *111 0.00123147
*CONN
*I *557:A2 I *D sky130_fd_sc_hd__o211ai_1
*I *522:A I *D sky130_fd_sc_hd__nor2_1
*I *556:B1 I *D sky130_fd_sc_hd__a21oi_1
*I *519:X O *D sky130_fd_sc_hd__and2_0
*CAP
1 *557:A2 9.63497e-05
2 *522:A 0
3 *556:B1 0.000249693
4 *519:X 0.000182866
5 *111:16 0.000336517
6 *111:12 0.000366041
7 *556:B1 *521:A 0
8 *556:B1 *523:B 0
9 *556:B1 *112:10 0
10 *556:B1 *373:19 0
11 *557:A2 *323:8 0
12 *557:A2 *345:17 0
13 *557:A2 *368:80 0
14 *111:12 *418:A 0
15 *111:12 *345:17 0
16 *111:12 *368:80 0
17 *111:16 *521:A 0
18 *111:16 *557:B1 0
19 *520:B *556:B1 0
20 *520:B *111:12 0
21 *557:A1 *111:16 0
22 *85:12 *556:B1 0
23 *93:19 *556:B1 0
24 *110:14 *111:12 0
25 *110:14 *111:16 0
*RES
1 *519:X *111:12 17.9429 
2 *111:12 *111:16 7.08929 
3 *111:16 *556:B1 23.6929 
4 *111:16 *522:A 9.3 
5 *111:12 *557:A2 16.05 
*END

*D_NET *112 0.000546745
*CONN
*I *521:A I *D sky130_fd_sc_hd__clkinv_1
*I *522:B I *D sky130_fd_sc_hd__nor2_1
*I *520:Y O *D sky130_fd_sc_hd__nor2_1
*CAP
1 *521:A 8.10706e-05
2 *522:B 0
3 *520:Y 0.000192302
4 *112:10 0.000273373
5 *112:10 *114:12 0
6 *112:10 *332:14 0
7 *520:B *112:10 0
8 *556:B1 *521:A 0
9 *556:B1 *112:10 0
10 *557:A1 *521:A 0
11 *557:A1 *112:10 0
12 *93:19 *112:10 0
13 *111:16 *521:A 0
*RES
1 *520:Y *112:10 13.55 
2 *112:10 *522:B 9.3 
3 *112:10 *521:A 11.0857 
*END

*D_NET *113 0.00059466
*CONN
*I *557:B1 I *D sky130_fd_sc_hd__o211ai_1
*I *521:Y O *D sky130_fd_sc_hd__clkinv_1
*CAP
1 *557:B1 0.00029733
2 *521:Y 0.00029733
3 *557:B1 *418:A 0
4 *557:B1 *558:A 0
5 *557:B1 *146:16 0
6 *557:A1 *557:B1 0
7 *111:16 *557:B1 0
*RES
1 *521:Y *557:B1 25.5464 
*END

*D_NET *114 0.000800131
*CONN
*I *556:A2 I *D sky130_fd_sc_hd__a21oi_1
*I *523:B I *D sky130_fd_sc_hd__xor2_1
*I *522:Y O *D sky130_fd_sc_hd__nor2_1
*CAP
1 *556:A2 0
2 *523:B 0.000282357
3 *522:Y 0.000117709
4 *114:12 0.000400065
5 *523:B *558:B 0
6 *523:B *115:10 0
7 *114:12 out[0] 0
8 *114:12 *373:19 0
9 *523:A *523:B 0
10 *556:B1 *523:B 0
11 *93:19 *523:B 0
12 *112:10 *114:12 0
*RES
1 *522:Y *114:12 20.8893 
2 *114:12 *523:B 15.1929 
3 *114:12 *556:A2 9.3 
*END

*D_NET *115 0.000714148
*CONN
*I *529:C I *D sky130_fd_sc_hd__maj3_1
*I *524:B I *D sky130_fd_sc_hd__xor2_1
*I *523:X O *D sky130_fd_sc_hd__xor2_1
*CAP
1 *529:C 9.91025e-05
2 *524:B 6.50276e-05
3 *523:X 0.000192944
4 *115:10 0.000357074
5 *524:B *524:A 0
6 *524:B *525:B 0
7 *524:B *527:A2 0
8 *529:C *524:A 0
9 *529:C *337:8 0
10 *115:10 *525:B 0
11 *115:10 *120:8 0
12 *523:B *115:10 0
13 *529:B *524:B 0
14 *93:19 *115:10 0
*RES
1 *523:X *115:10 13.6571 
2 *115:10 *524:B 10.6571 
3 *115:10 *529:C 20.55 
*END

*D_NET *116 0.000785803
*CONN
*I *525:B I *D sky130_fd_sc_hd__xnor2_1
*I *524:X O *D sky130_fd_sc_hd__xor2_1
*CAP
1 *525:B 0.000392901
2 *524:X 0.000392901
3 *525:B *524:A 0
4 *525:B *338:10 0
5 *523:A *525:B 0
6 *524:B *525:B 0
7 *529:B *525:B 0
8 *40:8 *525:B 0
9 *115:10 *525:B 0
*RES
1 *524:X *525:B 35.9571 
*END

*D_NET *117 0.000417989
*CONN
*I *527:A2 I *D sky130_fd_sc_hd__a21oi_1
*I *525:Y O *D sky130_fd_sc_hd__xnor2_1
*CAP
1 *527:A2 0.000208995
2 *525:Y 0.000208995
3 *527:A2 *526:B1 0
4 *527:A2 *528:B1 0
5 *527:A2 *529:A 0
6 *527:A2 *310:85 0
7 *527:A2 *310:97 0
8 *527:A2 *365:23 0
9 *524:B *527:A2 0
10 *529:B *527:A2 0
*RES
1 *525:Y *527:A2 32.0286 
*END

*D_NET *118 5.13376e-05
*CONN
*I *527:B1 I *D sky130_fd_sc_hd__a21oi_1
*I *526:Y O *D sky130_fd_sc_hd__o21ai_0
*CAP
1 *527:B1 2.56688e-05
2 *526:Y 2.56688e-05
3 *527:B1 *381:155 0
4 *527:B1 *382:66 0
*RES
1 *526:Y *527:B1 19.1357 
*END

*D_NET *119 0.000616051
*CONN
*I *528:B1 I *D sky130_fd_sc_hd__a21o_1
*I *527:Y O *D sky130_fd_sc_hd__a21oi_1
*CAP
1 *528:B1 0.000308025
2 *527:Y 0.000308025
3 *528:B1 *526:A1 0
4 *528:B1 *526:B1 0
5 *528:B1 *528:A2 0
6 *528:B1 *529:A 0
7 *528:B1 *381:155 0
8 *528:B1 *381:163 0
9 *527:A2 *528:B1 0
10 *529:B *528:B1 0
11 *92:8 *528:B1 0
*RES
1 *527:Y *528:B1 25.2429 
*END

*D_NET *120 0.000715303
*CONN
*I *564:B I *D sky130_fd_sc_hd__maj3_1
*I *560:A I *D sky130_fd_sc_hd__xor2_1
*I *529:X O *D sky130_fd_sc_hd__maj3_1
*CAP
1 *564:B 0.000176687
2 *560:A 0
3 *529:X 0.000180965
4 *120:8 0.000357652
5 *564:B *560:B 0
6 *564:B *562:A2 0
7 *564:B *563:B1 0
8 *564:B *564:A 0
9 *120:8 *563:B1 0
10 *120:8 *365:55 0
11 *115:10 *120:8 0
*RES
1 *529:X *120:8 13.1393 
2 *120:8 *560:A 9.3 
3 *120:8 *564:B 13.2643 
*END

*D_NET *121 0.00119337
*CONN
*I *554:A I *D sky130_fd_sc_hd__nand2_1
*I *555:A I *D sky130_fd_sc_hd__xor2_1
*I *530:X O *D sky130_fd_sc_hd__maj3_1
*CAP
1 *554:A 0.000112515
2 *555:A 0.000100108
3 *530:X 0.000384062
4 *121:12 0.000596685
5 *554:A *555:B 0
6 *554:A *589:A 0
7 *554:A *144:14 0
8 *554:A *145:10 0
9 *554:A *146:16 0
10 *554:A *342:127 0
11 *555:A *406:B 0
12 *555:A *555:B 0
13 *555:A *146:16 0
14 *555:A *342:127 0
15 *121:12 out[10] 0
16 *121:12 *553:A 0
17 *121:12 *144:14 0
18 *121:12 *383:9 0
*RES
1 *530:X *121:12 27.05 
2 *121:12 *555:A 11.3893 
3 *121:12 *554:A 11.925 
*END

*D_NET *122 0.00105322
*CONN
*I *552:A_N I *D sky130_fd_sc_hd__nand2b_1
*I *553:A I *D sky130_fd_sc_hd__xnor2_1
*I *531:X O *D sky130_fd_sc_hd__maj3_1
*CAP
1 *552:A_N 2.26741e-05
2 *553:A 0.000261795
3 *531:X 0.000242142
4 *122:8 0.000526611
5 *553:A *552:B 0
6 *553:A *375:42 0
7 *553:A *383:9 0
8 *122:8 *552:B 0
9 *122:8 *565:B1_N 0
10 *122:8 *375:42 0
11 *121:12 *553:A 0
*RES
1 *531:X *122:8 14.3536 
2 *122:8 *553:A 24.2286 
3 *122:8 *552:A_N 10.2464 
*END

*D_NET *123 0.00124768
*CONN
*I *551:A I *D sky130_fd_sc_hd__xnor3_1
*I *565:A1 I *D sky130_fd_sc_hd__a21boi_0
*I *532:X O *D sky130_fd_sc_hd__maj3_1
*CAP
1 *551:A 0
2 *565:A1 0.000174729
3 *532:X 0.000449109
4 *123:12 0.000623838
5 *565:A1 *481:A 0
6 *565:A1 *551:B 0
7 *565:A1 *342:127 0
8 *565:A1 *375:42 0
9 *123:12 *481:A 0
10 *123:12 *481:B 0
11 *123:12 *551:B 0
12 *123:12 *342:127 0
13 *123:12 *373:44 0
14 *123:12 *375:42 0
15 *531:A *123:12 0
16 *106:12 *123:12 0
*RES
1 *532:X *123:12 28.4786 
2 *123:12 *565:A1 22.1393 
3 *123:12 *551:A 9.3 
*END

*D_NET *124 0.00163226
*CONN
*I *543:A I *D sky130_fd_sc_hd__lpflow_isobufsrc_1
*I *542:A_N I *D sky130_fd_sc_hd__nand2b_1
*I *544:A I *D sky130_fd_sc_hd__xnor2_1
*I *533:X O *D sky130_fd_sc_hd__maj3_1
*CAP
1 *543:A 0.000108647
2 *542:A_N 0
3 *544:A 0.000101855
4 *533:X 0.000461025
5 *124:16 0.000246456
6 *124:10 0.000714273
7 *543:A *542:B 0
8 *543:A *544:B 0
9 *543:A *567:B1 0
10 *543:A *132:23 0
11 *543:A *343:115 0
12 *544:A *567:B1 0
13 *544:A *577:A 0
14 *544:A *137:10 0
15 *544:A *343:115 0
16 *124:10 *506:B 0
17 *124:10 *541:C 0
18 *124:10 *132:8 0
19 *124:10 *343:98 0
20 *124:10 *343:115 0
21 *124:10 *344:50 0
22 *124:16 *542:B 0
23 *124:16 *544:B 0
24 *124:16 *577:A 0
25 *124:16 *374:139 0
26 *533:C *124:10 0
27 *546:A *124:10 0
28 *99:6 *124:10 0
*RES
1 *533:X *124:10 24.0857 
2 *124:10 *124:16 7.51786 
3 *124:16 *544:A 20.55 
4 *124:16 *542:A_N 9.3 
5 *124:10 *543:A 16.5857 
*END

*D_NET *125 0.00102976
*CONN
*I *568:A I *D sky130_fd_sc_hd__maj3_1
*I *541:A I *D sky130_fd_sc_hd__xor3_1
*I *534:X O *D sky130_fd_sc_hd__maj3_1
*CAP
1 *568:A 4.23535e-05
2 *541:A 4.8129e-05
3 *534:X 0.000424399
4 *125:12 0.000514882
5 *541:A *541:C 0
6 *541:A *568:B 0
7 *568:A *541:C 0
8 *568:A *568:B 0
9 *125:12 *506:A 0
10 *125:12 *168:16 0
11 *125:12 *348:106 0
12 *507:A *125:12 0
13 *507:B *125:12 0
14 *534:C *125:12 0
15 *72:42 *125:12 0
16 *97:6 *125:12 0
17 *98:12 *125:12 0
*RES
1 *534:X *125:12 27.7643 
2 *125:12 *541:A 10.5679 
3 *125:12 *568:A 10.2464 
*END

*D_NET *126 0.000752477
*CONN
*I *536:B1 I *D sky130_fd_sc_hd__a31oi_1
*I *535:Y O *D sky130_fd_sc_hd__a22oi_1
*CAP
1 *536:B1 0.000376238
2 *535:Y 0.000376238
3 *536:B1 *506:A 0
4 *536:B1 *536:A1 0
5 *536:B1 *127:10 0
6 *536:B1 *348:106 0
7 *536:B1 *370:117 0
8 *536:B1 *372:46 0
9 *536:B1 *374:9 0
10 *72:42 *536:B1 0
*RES
1 *535:Y *536:B1 35.9036 
*END

*D_NET *127 0.000432211
*CONN
*I *568:B I *D sky130_fd_sc_hd__maj3_1
*I *541:B I *D sky130_fd_sc_hd__xor3_1
*I *536:Y O *D sky130_fd_sc_hd__a31oi_1
*CAP
1 *568:B 0.000143745
2 *541:B 0
3 *536:Y 7.23606e-05
4 *127:10 0.000216106
5 *568:B *541:C 0
6 *568:B *371:96 0
7 *568:B *373:76 0
8 *127:10 *348:106 0
9 *536:B1 *127:10 0
10 *541:A *568:B 0
11 *568:A *568:B 0
*RES
1 *536:Y *127:10 19.9429 
2 *127:10 *541:B 9.3 
3 *127:10 *568:B 12.3 
*END

*D_NET *128 0.000979692
*CONN
*I *578:B I *D sky130_fd_sc_hd__maj3_1
*I *540:B I *D sky130_fd_sc_hd__xnor3_1
*I *537:Y O *D sky130_fd_sc_hd__nand2_1
*CAP
1 *578:B 0.000388454
2 *540:B 0.000101392
3 *537:Y 0
4 *128:4 0.000489846
5 *540:B *537:B 0
6 *540:B *344:15 0
7 *578:B *578:C 0
8 *578:B *168:16 0
9 *578:B *344:15 0
10 *540:A *540:B 0
11 *578:A *578:B 0
*RES
1 *537:Y *128:4 9.3 
2 *128:4 *540:B 11.4786 
3 *128:4 *578:B 17.675 
*END

*D_NET *129 0.000715964
*CONN
*I *540:C I *D sky130_fd_sc_hd__xnor3_1
*I *578:C I *D sky130_fd_sc_hd__maj3_1
*I *538:Y O *D sky130_fd_sc_hd__nand2_1
*CAP
1 *540:C 5.86104e-05
2 *578:C 0.000210551
3 *538:Y 8.882e-05
4 *129:10 0.000357982
5 *540:C *344:19 0
6 *540:C *372:46 0
7 *578:C *168:16 0
8 *578:C *346:46 0
9 *129:10 *346:46 0
10 *578:A *578:C 0
11 *578:B *578:C 0
12 *102:8 *129:10 0
*RES
1 *538:Y *129:10 15.9786 
2 *129:10 *578:C 18.425 
3 *129:10 *540:C 15.1571 
*END

*D_NET *130 0.000682692
*CONN
*I *573:A I *D sky130_fd_sc_hd__xnor3_1
*I *608:A I *D sky130_fd_sc_hd__maj3_1
*I *539:Y O *D sky130_fd_sc_hd__nand2_1
*CAP
1 *573:A 5.41076e-05
2 *608:A 0.000225206
3 *539:Y 6.20329e-05
4 *130:6 0.000341346
5 *573:A *539:A 0
6 *573:A *570:B 0
7 *608:A *539:A 0
8 *608:A *608:B 0
9 *608:A *608:C 0
10 *608:A *197:10 0
11 *608:A *346:59 0
12 *608:A *372:61 0
13 *130:6 *539:A 0
14 *130:6 *570:B 0
*RES
1 *539:Y *130:6 10.6571 
2 *130:6 *608:A 23.175 
3 *130:6 *573:A 10.6929 
*END

*D_NET *131 0.00106784
*CONN
*I *568:C I *D sky130_fd_sc_hd__maj3_1
*I *541:C I *D sky130_fd_sc_hd__xor3_1
*I *540:X O *D sky130_fd_sc_hd__xnor3_1
*CAP
1 *568:C 8.3161e-05
2 *541:C 0.000450761
3 *540:X 0
4 *131:4 0.000533922
5 *541:C *535:A2 0
6 *541:C *344:19 0
7 *541:C *360:66 0
8 *541:C *371:96 0
9 *541:C *373:76 0
10 *568:C *168:16 0
11 *568:C *344:19 0
12 *568:C *371:96 0
13 *568:C *372:46 0
14 *541:A *541:C 0
15 *568:A *541:C 0
16 *568:B *541:C 0
17 *124:10 *541:C 0
*RES
1 *540:X *131:4 9.3 
2 *131:4 *541:C 27.8714 
3 *131:4 *568:C 20.175 
*END

*D_NET *132 0.000919408
*CONN
*I *543:SLEEP I *D sky130_fd_sc_hd__lpflow_isobufsrc_1
*I *544:B I *D sky130_fd_sc_hd__xnor2_1
*I *542:B I *D sky130_fd_sc_hd__nand2b_1
*I *541:X O *D sky130_fd_sc_hd__xor3_1
*CAP
1 *543:SLEEP 0
2 *544:B 0.000103734
3 *542:B 0.000145253
4 *541:X 8.84844e-05
5 *132:23 0.000225966
6 *132:8 0.00035597
7 *542:B *374:139 0
8 *544:B *547:A 0
9 *544:B *567:A1 0
10 *544:B *135:6 0
11 *132:8 *360:66 0
12 *132:23 *567:A1 0
13 *132:23 *567:B1 0
14 *132:23 *360:66 0
15 *543:A *542:B 0
16 *543:A *544:B 0
17 *543:A *132:23 0
18 *124:10 *132:8 0
19 *124:16 *542:B 0
20 *124:16 *544:B 0
*RES
1 *541:X *132:8 15.7464 
2 *132:8 *542:B 16.9339 
3 *132:8 *132:23 7.69643 
4 *132:23 *544:B 12.3179 
5 *132:23 *543:SLEEP 9.3 
*END

*D_NET *133 0.000358657
*CONN
*I *567:B1 I *D sky130_fd_sc_hd__o21ai_0
*I *542:Y O *D sky130_fd_sc_hd__nand2b_1
*CAP
1 *567:B1 0.000179328
2 *542:Y 0.000179328
3 *567:B1 *577:A 0
4 *567:B1 *168:22 0
5 *543:A *567:B1 0
6 *544:A *567:B1 0
7 *132:23 *567:B1 0
*RES
1 *542:Y *567:B1 31.6714 
*END

*D_NET *134 0.000584393
*CONN
*I *567:A1 I *D sky130_fd_sc_hd__o21ai_0
*I *543:X O *D sky130_fd_sc_hd__lpflow_isobufsrc_1
*CAP
1 *567:A1 0.000292196
2 *543:X 0.000292196
3 *567:A1 *567:A2 0
4 *567:A1 *575:B 0
5 *567:A1 *581:A 0
6 *567:A1 *135:6 0
7 *567:A1 *167:6 0
8 *544:B *567:A1 0
9 *132:23 *567:A1 0
*RES
1 *543:X *567:A1 24.9036 
*END

*D_NET *135 0.00142205
*CONN
*I *551:B I *D sky130_fd_sc_hd__xnor3_1
*I *550:A I *D sky130_fd_sc_hd__xnor2_1
*I *544:Y O *D sky130_fd_sc_hd__xnor2_1
*CAP
1 *551:B 0.000142226
2 *550:A 0.000172216
3 *544:Y 0.000396583
4 *135:6 0.000711025
5 *550:A *565:A2 0
6 *550:A *140:16 0
7 *551:B *566:B 0
8 *551:B *136:10 0
9 *135:6 *547:A 0
10 *135:6 *548:A 0
11 *135:6 *549:A 0
12 *135:6 *549:B 0
13 *135:6 *567:A2 0
14 *135:6 *577:A 0
15 *135:6 *136:10 0
16 *135:6 *138:6 0
17 *135:6 *140:16 0
18 *544:B *135:6 0
19 *565:A1 *551:B 0
20 *567:A1 *135:6 0
21 *123:12 *551:B 0
*RES
1 *544:Y *135:6 17.6393 
2 *135:6 *550:A 13.0321 
3 *135:6 *551:B 13.0143 
*END

*D_NET *136 0.000693057
*CONN
*I *549:A I *D sky130_fd_sc_hd__xnor2_1
*I *566:A I *D sky130_fd_sc_hd__maj3_1
*I *545:Y O *D sky130_fd_sc_hd__nand2_1
*CAP
1 *549:A 0.000180109
2 *566:A 0
3 *545:Y 0.000166419
4 *136:10 0.000346529
5 *549:A *566:B 0
6 *549:A *140:16 0
7 *549:A *156:10 0
8 *549:A *375:51 0
9 *136:10 *481:A 0
10 *136:10 *342:127 0
11 *136:10 *375:51 0
12 *551:B *136:10 0
13 *135:6 *549:A 0
14 *135:6 *136:10 0
*RES
1 *545:Y *136:10 12.8357 
2 *136:10 *566:A 9.3 
3 *136:10 *549:A 13.1214 
*END

*D_NET *137 0.00163995
*CONN
*I *566:B I *D sky130_fd_sc_hd__maj3_1
*I *548:A I *D sky130_fd_sc_hd__xnor2_1
*I *546:X O *D sky130_fd_sc_hd__maj3_1
*CAP
1 *566:B 0.000224266
2 *548:A 8.4707e-05
3 *546:X 0.000511002
4 *137:10 0.000819974
5 *548:A *138:6 0
6 *548:A *374:155 0
7 *566:B *549:B 0
8 *566:B *566:C 0
9 *566:B *567:A2 0
10 *566:B *140:16 0
11 *137:10 *481:A 0
12 *137:10 *509:A 0
13 *137:10 *547:B 0
14 *137:10 *140:16 0
15 *137:10 *343:115 0
16 *137:10 *345:54 0
17 *137:10 *372:32 0
18 *533:C *137:10 0
19 *544:A *137:10 0
20 *546:A *137:10 0
21 *546:B *137:10 0
22 *549:A *566:B 0
23 *551:B *566:B 0
24 *103:10 *137:10 0
25 *135:6 *548:A 0
*RES
1 *546:X *137:10 25.2107 
2 *137:10 *548:A 15.5679 
3 *137:10 *566:B 18.7821 
*END

*D_NET *138 0.000460462
*CONN
*I *566:C I *D sky130_fd_sc_hd__maj3_1
*I *548:B I *D sky130_fd_sc_hd__xnor2_1
*I *547:Y O *D sky130_fd_sc_hd__nand2_1
*CAP
1 *566:C 0.000125844
2 *548:B 0
3 *547:Y 0.000104386
4 *138:6 0.000230231
5 *566:C *481:A 0
6 *566:C *549:B 0
7 *566:C *577:A 0
8 *566:C *140:16 0
9 *548:A *138:6 0
10 *566:B *566:C 0
11 *135:6 *138:6 0
*RES
1 *547:Y *138:6 11.4786 
2 *138:6 *548:B 9.3 
3 *138:6 *566:C 21.1571 
*END

*D_NET *139 0.000235418
*CONN
*I *549:B I *D sky130_fd_sc_hd__xnor2_1
*I *548:Y O *D sky130_fd_sc_hd__xnor2_1
*CAP
1 *549:B 0.000117709
2 *548:Y 0.000117709
3 *549:B *577:A 0
4 *549:B *140:16 0
5 *566:B *549:B 0
6 *566:C *549:B 0
7 *135:6 *549:B 0
*RES
1 *548:Y *549:B 30.1893 
*END

*D_NET *140 0.00188391
*CONN
*I *567:A2 I *D sky130_fd_sc_hd__o21ai_0
*I *550:B I *D sky130_fd_sc_hd__xnor2_1
*I *551:C I *D sky130_fd_sc_hd__xnor3_1
*I *549:Y O *D sky130_fd_sc_hd__xnor2_1
*CAP
1 *567:A2 9.71136e-05
2 *550:B 0
3 *551:C 0.000246053
4 *549:Y 0
5 *140:16 0.000844841
6 *140:4 0.000695902
7 *551:C *565:A2 0
8 *551:C *565:B1_N 0
9 *551:C *375:42 0
10 *551:C *383:9 0
11 *567:A2 *167:6 0
12 *567:A2 *375:51 0
13 *567:A2 *375:72 0
14 *140:16 *481:A 0
15 *140:16 *373:44 0
16 *140:16 *375:42 0
17 *549:A *140:16 0
18 *549:B *140:16 0
19 *550:A *140:16 0
20 *566:B *567:A2 0
21 *566:B *140:16 0
22 *566:C *140:16 0
23 *567:A1 *567:A2 0
24 *135:6 *567:A2 0
25 *135:6 *140:16 0
26 *137:10 *140:16 0
*RES
1 *549:Y *140:4 9.3 
2 *140:4 *140:16 21.6786 
3 *140:16 *551:C 23.6929 
4 *140:16 *550:B 9.3 
5 *140:4 *567:A2 11.3893 
*END

*D_NET *141 0.000422611
*CONN
*I *565:A2 I *D sky130_fd_sc_hd__a21boi_0
*I *550:Y O *D sky130_fd_sc_hd__xnor2_1
*CAP
1 *565:A2 0.000211306
2 *550:Y 0.000211306
3 *565:A2 *565:B1_N 0
4 *565:A2 *375:42 0
5 *550:A *565:A2 0
6 *551:C *565:A2 0
*RES
1 *550:Y *565:A2 32.3143 
*END

*D_NET *142 0.000978978
*CONN
*I *552:B I *D sky130_fd_sc_hd__nand2b_1
*I *553:B I *D sky130_fd_sc_hd__xnor2_1
*I *551:X O *D sky130_fd_sc_hd__xnor3_1
*CAP
1 *552:B 0.000223817
2 *553:B 0.000265672
3 *551:X 0
4 *142:4 0.000489489
5 *552:B *342:127 0
6 *552:B *383:9 0
7 *553:B *342:127 0
8 *553:A *552:B 0
9 *122:8 *552:B 0
*RES
1 *551:X *142:4 9.3 
2 *142:4 *553:B 16.2643 
3 *142:4 *552:B 23.2509 
*END

*D_NET *143 0.000554813
*CONN
*I *565:B1_N I *D sky130_fd_sc_hd__a21boi_0
*I *552:Y O *D sky130_fd_sc_hd__nand2b_1
*CAP
1 *565:B1_N 0.000277406
2 *552:Y 0.000277406
3 *565:B1_N *375:42 0
4 *565:B1_N *383:9 0
5 *551:C *565:B1_N 0
6 *565:A2 *565:B1_N 0
7 *122:8 *565:B1_N 0
*RES
1 *552:Y *565:B1_N 33.7429 
*END

*D_NET *144 0.000517992
*CONN
*I *554:B I *D sky130_fd_sc_hd__nand2_1
*I *555:B I *D sky130_fd_sc_hd__xor2_1
*I *553:Y O *D sky130_fd_sc_hd__xnor2_1
*CAP
1 *554:B 0
2 *555:B 0.000105242
3 *553:Y 0.000153754
4 *144:14 0.000258996
5 *555:B *589:A 0
6 *555:B *146:16 0
7 *144:14 out[10] 0
8 *144:14 *145:10 0
9 *144:14 *342:127 0
10 *144:14 *383:9 0
11 *554:A *555:B 0
12 *554:A *144:14 0
13 *555:A *555:B 0
14 *121:12 *144:14 0
*RES
1 *553:Y *144:14 21.7286 
2 *144:14 *555:B 11.4964 
3 *144:14 *554:B 9.3 
*END

*D_NET *145 0.000642575
*CONN
*I *588:A1 I *D sky130_fd_sc_hd__a21oi_1
*I *589:A I *D sky130_fd_sc_hd__and3_1
*I *554:Y O *D sky130_fd_sc_hd__nand2_1
*CAP
1 *588:A1 0
2 *589:A 0.000124921
3 *554:Y 0.000196366
4 *145:10 0.000321288
5 *589:A *588:A2 0
6 *589:A *589:C 0
7 *589:A *146:16 0
8 *589:A *148:8 0
9 *589:A *177:10 0
10 *145:10 *177:10 0
11 *145:10 *342:127 0
12 *554:A *589:A 0
13 *554:A *145:10 0
14 *555:B *589:A 0
15 *144:14 *145:10 0
*RES
1 *554:Y *145:10 13.8714 
2 *145:10 *589:A 12.7286 
3 *145:10 *588:A1 9.3 
*END

*D_NET *146 0.00195246
*CONN
*I *558:A I *D sky130_fd_sc_hd__xnor2_1
*I *557:C1 I *D sky130_fd_sc_hd__o211ai_1
*I *555:X O *D sky130_fd_sc_hd__xor2_1
*CAP
1 *558:A 0.000221179
2 *557:C1 0
3 *555:X 0.000755049
4 *146:16 0.000976228
5 *558:A *558:B 0
6 *558:A *148:8 0
7 *558:A *367:22 0
8 *146:16 out[10] 0
9 *146:16 *406:B 0
10 *146:16 *588:B1 0
11 *146:16 *148:8 0
12 *146:16 *342:127 0
13 *146:16 *367:22 0
14 *146:16 *383:9 0
15 *554:A *146:16 0
16 *555:A *146:16 0
17 *555:B *146:16 0
18 *557:A1 *558:A 0
19 *557:B1 *558:A 0
20 *557:B1 *146:16 0
21 *589:A *146:16 0
*RES
1 *555:X *146:16 34.2643 
2 *146:16 *557:C1 9.3 
3 *146:16 *558:A 13.9786 
*END

*D_NET *147 0.000249843
*CONN
*I *558:B I *D sky130_fd_sc_hd__xnor2_1
*I *556:Y O *D sky130_fd_sc_hd__a21oi_1
*CAP
1 *558:B 0.000124921
2 *556:Y 0.000124921
3 *558:B *560:B 0
4 *523:B *558:B 0
5 *558:A *558:B 0
*RES
1 *556:Y *558:B 21.2071 
*END

*D_NET *148 0.00158719
*CONN
*I *588:A2 I *D sky130_fd_sc_hd__a21oi_1
*I *589:B I *D sky130_fd_sc_hd__and3_1
*I *557:Y O *D sky130_fd_sc_hd__o211ai_1
*CAP
1 *588:A2 0.000141606
2 *589:B 3.50807e-05
3 *557:Y 0.000616906
4 *148:8 0.000793593
5 *588:A2 *588:B1 0
6 *588:A2 *589:C 0
7 *588:A2 *590:A 0
8 *588:A2 *590:B 0
9 *588:A2 *177:10 0
10 *588:A2 *178:8 0
11 *588:A2 *180:12 0
12 *589:B *590:B 0
13 *589:B *177:10 0
14 *148:8 *590:B 0
15 *148:8 *591:C 0
16 *148:8 *367:22 0
17 *558:A *148:8 0
18 *589:A *588:A2 0
19 *589:A *148:8 0
20 *146:16 *148:8 0
*RES
1 *557:Y *148:8 22.175 
2 *148:8 *589:B 10.0321 
3 *148:8 *588:A2 12.3179 
*END

*D_NET *149 0.000506834
*CONN
*I *564:C I *D sky130_fd_sc_hd__maj3_1
*I *559:B I *D sky130_fd_sc_hd__xnor2_1
*I *558:Y O *D sky130_fd_sc_hd__xnor2_1
*CAP
1 *564:C 9.63497e-05
2 *559:B 8.4707e-05
3 *558:Y 7.23606e-05
4 *149:8 0.000253417
5 *559:B *559:A 0
6 *559:B *560:B 0
7 *559:B *367:22 0
8 *564:C *345:17 0
9 *564:C *357:32 0
10 *149:8 *345:17 0
11 *149:8 *357:32 0
*RES
1 *558:Y *149:8 15.4429 
2 *149:8 *559:B 15.5679 
3 *149:8 *564:C 16.05 
*END

*D_NET *150 0.000498312
*CONN
*I *560:B I *D sky130_fd_sc_hd__xor2_1
*I *559:Y O *D sky130_fd_sc_hd__xnor2_1
*CAP
1 *560:B 0.000249156
2 *559:Y 0.000249156
3 *560:B *559:A 0
4 *560:B *373:19 0
5 *558:B *560:B 0
6 *559:B *560:B 0
7 *564:B *560:B 0
*RES
1 *559:Y *560:B 32.9571 
*END

*D_NET *151 0.000301322
*CONN
*I *562:A2 I *D sky130_fd_sc_hd__a21oi_1
*I *560:X O *D sky130_fd_sc_hd__xor2_1
*CAP
1 *562:A2 0.000150661
2 *560:X 0.000150661
3 *562:A2 out[0] 0
4 *562:A2 *562:B1 0
5 *562:A2 *563:B1 0
6 *562:A2 *564:A 0
7 *562:A2 *365:79 0
8 *562:A2 *366:22 0
9 *564:B *562:A2 0
*RES
1 *560:X *562:A2 30.9036 
*END

*D_NET *152 0.00028749
*CONN
*I *562:B1 I *D sky130_fd_sc_hd__a21oi_1
*I *561:Y O *D sky130_fd_sc_hd__o21ai_0
*CAP
1 *562:B1 0.000143745
2 *561:Y 0.000143745
3 *562:B1 *594:A2 0
4 *562:B1 *381:139 0
5 *562:B1 *383:41 0
6 *562:A2 *562:B1 0
*RES
1 *561:Y *562:B1 21.6 
*END

*D_NET *153 0.000281374
*CONN
*I *563:B1 I *D sky130_fd_sc_hd__a21o_1
*I *562:Y O *D sky130_fd_sc_hd__a21oi_1
*CAP
1 *563:B1 0.000140687
2 *562:Y 0.000140687
3 *563:B1 *365:55 0
4 *562:A2 *563:B1 0
5 *564:B *563:B1 0
6 *120:8 *563:B1 0
*RES
1 *562:Y *563:B1 30.7786 
*END

*D_NET *154 0.00145573
*CONN
*I *595:B I *D sky130_fd_sc_hd__maj3_1
*I *591:B I *D sky130_fd_sc_hd__xnor3_1
*I *564:X O *D sky130_fd_sc_hd__maj3_1
*CAP
1 *595:B 0.000202083
2 *591:B 0
3 *564:X 0.000525782
4 *154:10 0.000727866
5 *595:B out[12] 0
6 *595:B out[7] 0
7 *595:B *591:C 0
8 *595:B *341:42 0
9 *154:10 *595:A 0
10 *154:10 *365:79 0
11 *154:10 *367:34 0
12 *154:10 *381:135 0
*RES
1 *564:X *154:10 20.3357 
2 *154:10 *591:B 9.3 
3 *154:10 *595:B 27.0994 
*END

*D_NET *155 0.000652136
*CONN
*I *586:SLEEP I *D sky130_fd_sc_hd__lpflow_isobufsrc_1
*I *587:A I *D sky130_fd_sc_hd__xor2_1
*I *565:Y O *D sky130_fd_sc_hd__a21boi_0
*CAP
1 *586:SLEEP 0.00014674
2 *587:A 0
3 *565:Y 0.000179328
4 *155:10 0.000326068
5 *586:SLEEP *587:B 0
6 *586:SLEEP *175:10 0
7 *586:SLEEP *177:10 0
8 *586:SLEEP *178:19 0
9 *155:10 *383:9 0
*RES
1 *565:Y *155:10 22.3714 
2 *155:10 *587:A 9.3 
3 *155:10 *586:SLEEP 12.3 
*END

*D_NET *156 0.000603955
*CONN
*I *585:A I *D sky130_fd_sc_hd__xnor2_1
*I *584:SLEEP I *D sky130_fd_sc_hd__lpflow_isobufsrc_1
*I *566:X O *D sky130_fd_sc_hd__maj3_1
*CAP
1 *585:A 0.000191114
2 *584:SLEEP 1.60323e-05
3 *566:X 9.48315e-05
4 *156:10 0.000301978
5 *584:SLEEP *375:51 0
6 *585:A *584:A 0
7 *585:A *585:B 0
8 *585:A *596:B1 0
9 *585:A *175:10 0
10 *585:A *375:51 0
11 *156:10 *481:A 0
12 *156:10 *577:A 0
13 *156:10 *584:A 0
14 *549:A *156:10 0
*RES
1 *566:X *156:10 15.9786 
2 *156:10 *584:SLEEP 14.3357 
3 *156:10 *585:A 18.0143 
*END

*D_NET *157 0.000857453
*CONN
*I *583:A I *D sky130_fd_sc_hd__xor2_1
*I *596:A1 I *D sky130_fd_sc_hd__a21oi_1
*I *567:Y O *D sky130_fd_sc_hd__o21ai_0
*CAP
1 *583:A 0
2 *596:A1 7.09842e-05
3 *567:Y 0.000357742
4 *157:12 0.000428726
5 *596:A1 *596:B1 0
6 *157:12 *577:A 0
7 *157:12 *583:B 0
8 *157:12 *596:A2 0
9 *157:12 *596:B1 0
10 *157:12 *597:A 0
11 *157:12 *597:B 0
12 *157:12 *168:22 0
13 *157:12 *173:10 0
*RES
1 *567:Y *157:12 26.0857 
2 *157:12 *596:A1 19.9429 
3 *157:12 *583:A 9.3 
*END

*D_NET *158 0.0015516
*CONN
*I *576:A I *D sky130_fd_sc_hd__xnor2_1
*I *575:A I *D sky130_fd_sc_hd__nand2_1
*I *568:X O *D sky130_fd_sc_hd__maj3_1
*CAP
1 *576:A 0
2 *575:A 6.35302e-05
3 *568:X 0.000712268
4 *158:16 0.000775799
5 *575:A *575:B 0
6 *575:A *598:B1 0
7 *158:16 *575:B 0
8 *158:16 *598:B1 0
9 *158:16 *599:B1 0
10 *158:16 *599:C1 0
11 *158:16 *602:A 0
12 *158:16 *603:B1 0
13 *158:16 *161:12 0
14 *158:16 *163:8 0
15 *158:16 *164:14 0
16 *158:16 *168:16 0
17 *158:16 *188:10 0
18 *158:16 *344:106 0
19 *158:16 *347:48 0
20 *158:16 *371:100 0
21 *599:A1 *158:16 0
*RES
1 *568:X *158:16 33.675 
2 *158:16 *575:A 10.6571 
3 *158:16 *576:A 9.3 
*END

*D_NET *159 0.000476051
*CONN
*I *574:A I *D sky130_fd_sc_hd__xnor2_1
*I *569:Y O *D sky130_fd_sc_hd__nand3b_1
*CAP
1 *574:A 0.000238026
2 *569:Y 0.000238026
3 *574:A *569:C 0
4 *574:A *574:B 0
5 *574:A *163:8 0
6 *574:A *348:95 0
7 *574:A *370:117 0
8 *574:A *374:9 0
9 *569:A_N *574:A 0
10 *72:57 *574:A 0
*RES
1 *569:Y *574:A 32.6893 
*END

*D_NET *160 0.000550254
*CONN
*I *573:B I *D sky130_fd_sc_hd__xnor3_1
*I *608:B I *D sky130_fd_sc_hd__maj3_1
*I *570:Y O *D sky130_fd_sc_hd__nand2_1
*CAP
1 *573:B 0
2 *608:B 0.000192148
3 *570:Y 8.29787e-05
4 *160:8 0.000275127
5 *608:B *539:A 0
6 *608:B *571:A 0
7 *608:B *608:C 0
8 *608:B *197:10 0
9 *608:B *345:79 0
10 *160:8 *197:10 0
11 *160:8 *345:79 0
12 *608:A *608:B 0
*RES
1 *570:Y *160:8 15.7464 
2 *160:8 *608:B 17.9429 
3 *160:8 *573:B 13.8 
*END

*D_NET *161 0.00136785
*CONN
*I *608:C I *D sky130_fd_sc_hd__maj3_1
*I *602:A I *D sky130_fd_sc_hd__nor2_1
*I *573:C I *D sky130_fd_sc_hd__xnor3_1
*I *571:Y O *D sky130_fd_sc_hd__nand2_1
*CAP
1 *608:C 0.000163425
2 *602:A 0.000371769
3 *573:C 0
4 *571:Y 0
5 *161:12 0.000520498
6 *161:4 0.000312153
7 *602:A *570:A 0
8 *602:A *601:B 0
9 *602:A *602:B 0
10 *602:A *603:A2 0
11 *602:A *603:B2 0
12 *602:A *604:B 0
13 *602:A *347:48 0
14 *602:A *347:70 0
15 *608:C *571:A 0
16 *608:C *346:59 0
17 *161:12 *599:B1 0
18 *161:12 *344:106 0
19 *161:12 *347:70 0
20 *608:A *608:C 0
21 *608:B *608:C 0
22 *158:16 *602:A 0
23 *158:16 *161:12 0
*RES
1 *571:Y *161:4 9.3 
2 *161:4 *161:12 12.2857 
3 *161:12 *573:C 9.3 
4 *161:12 *602:A 18.4607 
5 *161:4 *608:C 12.7107 
*END

*D_NET *162 0.000419257
*CONN
*I *630:A I *D sky130_fd_sc_hd__nor2_1
*I *572:Y O *D sky130_fd_sc_hd__nand2_1
*CAP
1 *630:A 0.000209628
2 *572:Y 0.000209628
3 *630:A *572:B 0
4 *630:A *638:A 0
5 *630:A *638:B 0
6 *630:A *657:B 0
7 *630:A *677:B1 0
8 *630:A *217:8 0
9 *630:A *218:6 0
10 *630:A *218:12 0
*RES
1 *572:Y *630:A 22.85 
*END

*D_NET *163 0.000647998
*CONN
*I *599:A2 I *D sky130_fd_sc_hd__o211a_1
*I *574:B I *D sky130_fd_sc_hd__xnor2_1
*I *573:X O *D sky130_fd_sc_hd__xnor3_1
*CAP
1 *599:A2 2.94948e-05
2 *574:B 0.000190118
3 *573:X 0.000104386
4 *163:8 0.000323999
5 *574:B *599:C1 0
6 *574:B *164:14 0
7 *574:B *168:16 0
8 *574:B *370:117 0
9 *599:A2 *599:C1 0
10 *163:8 *569:C 0
11 *163:8 *599:B1 0
12 *163:8 *168:16 0
13 *569:A_N *574:B 0
14 *574:A *574:B 0
15 *574:A *163:8 0
16 *599:A1 *574:B 0
17 *599:A1 *599:A2 0
18 *158:16 *163:8 0
*RES
1 *573:X *163:8 15.9786 
2 *163:8 *574:B 17.925 
3 *163:8 *599:A2 14.5321 
*END

*D_NET *164 0.000732101
*CONN
*I *576:B I *D sky130_fd_sc_hd__xnor2_1
*I *575:B I *D sky130_fd_sc_hd__nand2_1
*I *574:Y O *D sky130_fd_sc_hd__xnor2_1
*CAP
1 *576:B 0
2 *575:B 0.000144601
3 *574:Y 0.00022145
4 *164:14 0.000366051
5 *575:B *581:A 0
6 *575:B *168:16 0
7 *164:14 *599:B1 0
8 *164:14 *168:16 0
9 *567:A1 *575:B 0
10 *574:B *164:14 0
11 *575:A *575:B 0
12 *599:A1 *164:14 0
13 *158:16 *575:B 0
14 *158:16 *164:14 0
*RES
1 *574:Y *164:14 23.0679 
2 *164:14 *575:B 12.3179 
3 *164:14 *576:B 9.3 
*END

*D_NET *165 0.000432212
*CONN
*I *598:B1 I *D sky130_fd_sc_hd__o21a_1
*I *575:Y O *D sky130_fd_sc_hd__nand2_1
*CAP
1 *598:B1 0.000216106
2 *575:Y 0.000216106
3 *598:B1 *581:A 0
4 *598:B1 *582:B 0
5 *598:B1 *166:16 0
6 *598:B1 *187:10 0
7 *598:B1 *347:48 0
8 *598:B1 *374:9 0
9 *575:A *598:B1 0
10 *158:16 *598:B1 0
*RES
1 *575:Y *598:B1 32.2429 
*END

*D_NET *166 0.00103821
*CONN
*I *582:A I *D sky130_fd_sc_hd__xor2_1
*I *598:A1 I *D sky130_fd_sc_hd__o21a_1
*I *576:Y O *D sky130_fd_sc_hd__xnor2_1
*CAP
1 *582:A 0.000240056
2 *598:A1 8.55626e-05
3 *576:Y 0.000193486
4 *166:16 0.000519104
5 *582:A *579:A 0
6 *582:A *172:8 0
7 *582:A *188:10 0
8 *582:A *374:9 0
9 *582:A *375:72 0
10 *598:A1 *598:A2 0
11 *598:A1 *347:48 0
12 *598:A1 *375:72 0
13 *166:16 *188:10 0
14 *166:16 *348:85 0
15 *166:16 *374:9 0
16 *598:B1 *166:16 0
17 *599:A1 *166:16 0
*RES
1 *576:Y *166:16 18.5857 
2 *166:16 *598:A1 15.5857 
3 *166:16 *582:A 19.05 
*END

*D_NET *167 0.000847625
*CONN
*I *581:A I *D sky130_fd_sc_hd__xnor2_1
*I *597:A I *D sky130_fd_sc_hd__maj3_1
*I *577:Y O *D sky130_fd_sc_hd__nand2_1
*CAP
1 *581:A 0.000220324
2 *597:A 9.91025e-05
3 *577:Y 0.000104386
4 *167:6 0.000423813
5 *581:A *581:B 0
6 *581:A *168:22 0
7 *581:A *375:72 0
8 *597:A *597:B 0
9 *597:A *168:22 0
10 *597:A *375:72 0
11 *167:6 *375:72 0
12 *567:A1 *581:A 0
13 *567:A1 *167:6 0
14 *567:A2 *167:6 0
15 *575:B *581:A 0
16 *598:B1 *581:A 0
17 *157:12 *597:A 0
*RES
1 *577:Y *167:6 11.4786 
2 *167:6 *597:A 20.55 
3 *167:6 *581:A 13.9607 
*END

*D_NET *168 0.00310679
*CONN
*I *580:A I *D sky130_fd_sc_hd__xnor2_1
*I *597:B I *D sky130_fd_sc_hd__maj3_1
*I *578:X O *D sky130_fd_sc_hd__maj3_1
*CAP
1 *580:A 0
2 *597:B 0.000136766
3 *578:X 0.00112092
4 *168:22 0.000432475
5 *168:16 0.00141663
6 *597:B *579:B 0
7 *597:B *580:B 0
8 *597:B *172:8 0
9 *597:B *187:10 0
10 *597:B *375:72 0
11 *168:16 *599:C1 0
12 *168:16 *344:15 0
13 *168:16 *344:19 0
14 *168:16 *346:46 0
15 *168:16 *348:95 0
16 *168:16 *348:106 0
17 *168:16 *370:117 0
18 *168:16 *371:100 0
19 *168:16 *372:46 0
20 *168:22 *581:B 0
21 *168:22 *360:66 0
22 *168:22 *375:72 0
23 *567:B1 *168:22 0
24 *568:C *168:16 0
25 *569:A_N *168:16 0
26 *574:B *168:16 0
27 *575:B *168:16 0
28 *578:B *168:16 0
29 *578:C *168:16 0
30 *581:A *168:22 0
31 *597:A *597:B 0
32 *597:A *168:22 0
33 *72:57 *168:16 0
34 *125:12 *168:16 0
35 *157:12 *597:B 0
36 *157:12 *168:22 0
37 *158:16 *168:16 0
38 *163:8 *168:16 0
39 *164:14 *168:16 0
*RES
1 *578:X *168:16 46.9429 
2 *168:16 *168:22 11.0536 
3 *168:22 *597:B 21.3893 
4 *168:22 *580:A 9.3 
*END

*D_NET *169 0.000364162
*CONN
*I *597:C I *D sky130_fd_sc_hd__maj3_1
*I *580:B I *D sky130_fd_sc_hd__xnor2_1
*I *579:Y O *D sky130_fd_sc_hd__nand2_1
*CAP
1 *597:C 0
2 *580:B 0.000112474
3 *579:Y 6.96077e-05
4 *169:8 0.000182081
5 *580:B *582:B 0
6 *580:B *187:10 0
7 *580:B *385:47 0
8 *169:8 *186:12 0
9 *169:8 *385:47 0
10 *597:B *580:B 0
*RES
1 *579:Y *169:8 15.4429 
2 *169:8 *580:B 16.3536 
3 *169:8 *597:C 13.8 
*END

*D_NET *170 0.000131766
*CONN
*I *581:B I *D sky130_fd_sc_hd__xnor2_1
*I *580:Y O *D sky130_fd_sc_hd__xnor2_1
*CAP
1 *581:B 6.58832e-05
2 *580:Y 6.58832e-05
3 *581:B *598:A2 0
4 *581:B *375:72 0
5 *581:A *581:B 0
6 *168:22 *581:B 0
*RES
1 *580:Y *581:B 19.975 
*END

*D_NET *171 0.000547642
*CONN
*I *598:A2 I *D sky130_fd_sc_hd__o21a_1
*I *582:B I *D sky130_fd_sc_hd__xor2_1
*I *581:Y O *D sky130_fd_sc_hd__xnor2_1
*CAP
1 *598:A2 0.000157649
2 *582:B 0.000116172
3 *581:Y 0
4 *171:4 0.000273821
5 *582:B *187:10 0
6 *582:B *385:47 0
7 *598:A2 *187:10 0
8 *598:A2 *347:48 0
9 *598:A2 *375:72 0
10 *580:B *582:B 0
11 *581:B *598:A2 0
12 *598:A1 *598:A2 0
13 *598:B1 *582:B 0
*RES
1 *581:Y *171:4 9.3 
2 *171:4 *582:B 20.8893 
3 *171:4 *598:A2 12.6214 
*END

*D_NET *172 0.00150847
*CONN
*I *596:A2 I *D sky130_fd_sc_hd__a21oi_1
*I *583:B I *D sky130_fd_sc_hd__xor2_1
*I *582:X O *D sky130_fd_sc_hd__xor2_1
*CAP
1 *596:A2 0.000293469
2 *583:B 0.000142248
3 *582:X 0.000318517
4 *172:8 0.000754234
5 *583:B *173:10 0
6 *583:B *375:72 0
7 *596:A2 *579:A 0
8 *596:A2 *579:B 0
9 *596:A2 *617:B 0
10 *172:8 *579:A 0
11 *172:8 *375:72 0
12 *582:A *172:8 0
13 *597:B *172:8 0
14 *157:12 *583:B 0
15 *157:12 *596:A2 0
*RES
1 *582:X *172:8 16.0143 
2 *172:8 *583:B 12.3 
3 *172:8 *596:A2 16.05 
*END

*D_NET *173 0.000689552
*CONN
*I *584:A I *D sky130_fd_sc_hd__lpflow_isobufsrc_1
*I *585:B I *D sky130_fd_sc_hd__xnor2_1
*I *583:X O *D sky130_fd_sc_hd__xor2_1
*CAP
1 *584:A 0.000112474
2 *585:B 2.56688e-05
3 *583:X 0.000206634
4 *173:10 0.000344776
5 *585:B *375:51 0
6 *173:10 *596:B1 0
7 *173:10 *175:10 0
8 *173:10 *375:51 0
9 *173:10 *375:72 0
10 *583:B *173:10 0
11 *585:A *584:A 0
12 *585:A *585:B 0
13 *156:10 *584:A 0
14 *157:12 *173:10 0
*RES
1 *583:X *173:10 13.675 
2 *173:10 *585:B 9.83571 
3 *173:10 *584:A 20.8536 
*END

*D_NET *174 0.000383252
*CONN
*I *596:B1 I *D sky130_fd_sc_hd__a21oi_1
*I *584:X O *D sky130_fd_sc_hd__lpflow_isobufsrc_1
*CAP
1 *596:B1 0.000191626
2 *584:X 0.000191626
3 *596:B1 *375:51 0
4 *585:A *596:B1 0
5 *596:A1 *596:B1 0
6 *157:12 *596:B1 0
7 *173:10 *596:B1 0
*RES
1 *584:X *596:B1 31.9036 
*END

*D_NET *175 0.000976269
*CONN
*I *586:A I *D sky130_fd_sc_hd__lpflow_isobufsrc_1
*I *587:B I *D sky130_fd_sc_hd__xor2_1
*I *585:Y O *D sky130_fd_sc_hd__xnor2_1
*CAP
1 *586:A 0
2 *587:B 0.000159146
3 *585:Y 0.000328988
4 *175:10 0.000488135
5 *587:B *177:10 0
6 *175:10 *618:A2 0
7 *175:10 *375:51 0
8 *585:A *175:10 0
9 *586:SLEEP *587:B 0
10 *586:SLEEP *175:10 0
11 *173:10 *175:10 0
*RES
1 *585:Y *175:10 16.2286 
2 *175:10 *587:B 12.6214 
3 *175:10 *586:A 9.3 
*END

*D_NET *176 0.000196059
*CONN
*I *618:A1 I *D sky130_fd_sc_hd__o21ai_0
*I *619:A I *D sky130_fd_sc_hd__nor3_1
*I *586:X O *D sky130_fd_sc_hd__lpflow_isobufsrc_1
*CAP
1 *618:A1 2.56688e-05
2 *619:A 0
3 *586:X 7.23606e-05
4 *176:10 9.80294e-05
5 *618:A1 *618:A2 0
6 *618:A1 *619:C 0
7 *176:10 *185:8 0
*RES
1 *586:X *176:10 19.9429 
2 *176:10 *619:A 9.3 
3 *176:10 *618:A1 9.83571 
*END

*D_NET *177 0.000693057
*CONN
*I *588:B1 I *D sky130_fd_sc_hd__a21oi_1
*I *589:C I *D sky130_fd_sc_hd__and3_1
*I *587:X O *D sky130_fd_sc_hd__xor2_1
*CAP
1 *588:B1 2.0535e-05
2 *589:C 5.81826e-05
3 *587:X 0.000267811
4 *177:10 0.000346529
5 *177:10 *590:B 0
6 *177:10 *178:8 0
7 *177:10 *178:19 0
8 *586:SLEEP *177:10 0
9 *587:B *177:10 0
10 *588:A2 *588:B1 0
11 *588:A2 *589:C 0
12 *588:A2 *177:10 0
13 *589:A *589:C 0
14 *589:A *177:10 0
15 *589:B *177:10 0
16 *145:10 *177:10 0
17 *146:16 *588:B1 0
*RES
1 *587:X *177:10 15.1036 
2 *177:10 *589:C 10.5143 
3 *177:10 *588:B1 9.72857 
*END

*D_NET *178 0.00112943
*CONN
*I *618:A2 I *D sky130_fd_sc_hd__o21ai_0
*I *619:B I *D sky130_fd_sc_hd__nor3_1
*I *590:A I *D sky130_fd_sc_hd__nor2_1
*I *588:Y O *D sky130_fd_sc_hd__a21oi_1
*CAP
1 *618:A2 0.000102247
2 *619:B 0
3 *590:A 0.000121702
4 *588:Y 0.000140975
5 *178:19 0.000302036
6 *178:8 0.000462466
7 *590:A *590:B 0
8 *590:A *180:12 0
9 *618:A2 *619:C 0
10 *618:A2 *206:10 0
11 *178:8 *590:B 0
12 *178:19 *619:C 0
13 *178:19 *620:SLEEP 0
14 *586:SLEEP *178:19 0
15 *588:A2 *590:A 0
16 *588:A2 *178:8 0
17 *618:A1 *618:A2 0
18 *175:10 *618:A2 0
19 *177:10 *178:8 0
20 *177:10 *178:19 0
*RES
1 *588:Y *178:8 12.4071 
2 *178:8 *590:A 12.6214 
3 *178:8 *178:19 4.23214 
4 *178:19 *619:B 9.3 
5 *178:19 *618:A2 11.4964 
*END

*D_NET *179 0.000368389
*CONN
*I *590:B I *D sky130_fd_sc_hd__nor2_1
*I *589:X O *D sky130_fd_sc_hd__and3_1
*CAP
1 *590:B 0.000184195
2 *589:X 0.000184195
3 *590:B out[10] 0
4 *590:B *591:C 0
5 *590:B *383:9 0
6 *588:A2 *590:B 0
7 *589:B *590:B 0
8 *590:A *590:B 0
9 *148:8 *590:B 0
10 *177:10 *590:B 0
11 *178:8 *590:B 0
*RES
1 *589:X *590:B 31.5821 
*END

*D_NET *180 0.00135191
*CONN
*I *595:C I *D sky130_fd_sc_hd__maj3_1
*I *591:C I *D sky130_fd_sc_hd__xnor3_1
*I *590:Y O *D sky130_fd_sc_hd__nor2_1
*CAP
1 *595:C 0
2 *591:C 0.000511248
3 *590:Y 0.000164708
4 *180:12 0.000675956
5 *591:C out[10] 0
6 *591:C out[7] 0
7 *591:C *595:A 0
8 *591:C *342:25 0
9 *591:C *367:22 0
10 *591:C *367:34 0
11 *591:C *383:9 0
12 *180:12 out[7] 0
13 *588:A2 *180:12 0
14 *590:A *180:12 0
15 *590:B *591:C 0
16 *595:B *591:C 0
17 *148:8 *591:C 0
*RES
1 *590:Y *180:12 13.4786 
2 *180:12 *591:C 38.3357 
3 *180:12 *595:C 9.3 
*END

*D_NET *181 0.00017689
*CONN
*I *593:A2 I *D sky130_fd_sc_hd__a21oi_1
*I *591:X O *D sky130_fd_sc_hd__xnor3_1
*CAP
1 *593:A2 8.84451e-05
2 *591:X 8.84451e-05
3 *593:A2 *593:A1 0
4 *593:A2 *342:25 0
5 *593:A2 *381:135 0
*RES
1 *591:X *593:A2 29.5464 
*END

*D_NET *182 0.00032856
*CONN
*I *593:B1 I *D sky130_fd_sc_hd__a21oi_1
*I *592:Y O *D sky130_fd_sc_hd__o21ai_0
*CAP
1 *593:B1 0.00016428
2 *592:Y 0.00016428
3 *593:B1 *592:A1 0
4 *593:B1 *594:A2 0
5 *593:B1 *381:123 0
6 *593:B1 *383:39 0
*RES
1 *592:Y *593:B1 22.0286 
*END

*D_NET *183 0.000257543
*CONN
*I *594:B1 I *D sky130_fd_sc_hd__a21o_1
*I *593:Y O *D sky130_fd_sc_hd__a21oi_1
*CAP
1 *594:B1 0.000128772
2 *593:Y 0.000128772
3 *594:B1 *592:B1 0
4 *594:B1 *594:A2 0
5 *594:B1 *365:79 0
6 *594:B1 *383:39 0
*RES
1 *593:Y *594:B1 21.6 
*END

*D_NET *184 0.000821086
*CONN
*I *625:B I *D sky130_fd_sc_hd__maj3_1
*I *621:B I *D sky130_fd_sc_hd__xnor3_1
*I *595:X O *D sky130_fd_sc_hd__maj3_1
*CAP
1 *625:B 0.000142248
2 *621:B 0
3 *595:X 0.000268295
4 *184:16 0.000410543
5 *625:B *621:A 0
6 *625:B *621:C 0
7 *625:B *625:A 0
8 *625:B *650:A1 0
9 *625:B *381:107 0
10 *184:16 out[7] 0
11 *184:16 *621:C 0
12 *184:16 *365:79 0
13 *184:16 *383:9 0
*RES
1 *595:X *184:16 24.0143 
2 *184:16 *621:B 9.3 
3 *184:16 *625:B 12.3 
*END

*D_NET *185 0.000439128
*CONN
*I *616:A I *D sky130_fd_sc_hd__lpflow_inputiso1p_1
*I *617:A I *D sky130_fd_sc_hd__xor2_1
*I *596:Y O *D sky130_fd_sc_hd__a21oi_1
*CAP
1 *616:A 8.84844e-05
2 *617:A 4.53482e-05
3 *596:Y 8.57316e-05
4 *185:8 0.000219564
5 *616:A *207:8 0
6 *617:A out[7] 0
7 *617:A *617:B 0
8 *617:A *206:10 0
9 *176:10 *185:8 0
*RES
1 *596:Y *185:8 15.7464 
2 *185:8 *617:A 14.7464 
3 *185:8 *616:A 15.7464 
*END

*D_NET *186 0.000747512
*CONN
*I *615:A I *D sky130_fd_sc_hd__xnor2_1
*I *626:A I *D sky130_fd_sc_hd__maj3_1
*I *597:X O *D sky130_fd_sc_hd__maj3_1
*CAP
1 *615:A 0
2 *626:A 9.77261e-05
3 *597:X 0.00027603
4 *186:12 0.000373756
5 *626:A *385:47 0
6 *186:12 *579:B 0
7 *186:12 *615:B 0
8 *186:12 *204:6 0
9 *186:12 *385:47 0
10 *169:8 *186:12 0
*RES
1 *597:X *186:12 24.4429 
2 *186:12 *626:A 20.55 
3 *186:12 *615:A 9.3 
*END

*D_NET *187 0.00145914
*CONN
*I *626:B I *D sky130_fd_sc_hd__maj3_1
*I *614:A I *D sky130_fd_sc_hd__xnor2_1
*I *598:X O *D sky130_fd_sc_hd__o21a_1
*CAP
1 *626:B 0.000259774
2 *614:A 6.50276e-05
3 *598:X 0.000404768
4 *187:10 0.00072957
5 *614:A *614:B 0
6 *614:A *615:B 0
7 *614:A *626:C 0
8 *626:B out[7] 0
9 *626:B *626:C 0
10 *626:B *204:6 0
11 *626:B *360:66 0
12 *626:B *385:47 0
13 *187:10 *347:48 0
14 *187:10 *360:66 0
15 *187:10 *385:47 0
16 *580:B *187:10 0
17 *582:B *187:10 0
18 *597:B *187:10 0
19 *598:A2 *187:10 0
20 *598:B1 *187:10 0
*RES
1 *598:X *187:10 22.8714 
2 *187:10 *614:A 15.1571 
3 *187:10 *626:B 19.4607 
*END

*D_NET *188 0.00126892
*CONN
*I *628:A1 I *D sky130_fd_sc_hd__a21oi_1
*I *606:A I *D sky130_fd_sc_hd__xnor2_1
*I *599:X O *D sky130_fd_sc_hd__o211a_1
*CAP
1 *628:A1 6.96077e-05
2 *606:A 0.00012706
3 *599:X 0.00043779
4 *188:10 0.000634458
5 *606:A *613:A 0
6 *606:A *613:B 0
7 *606:A *195:8 0
8 *606:A *200:14 0
9 *628:A1 *612:B 0
10 *628:A1 *374:34 0
11 *188:10 *348:81 0
12 *188:10 *348:85 0
13 *188:10 *373:118 0
14 *188:10 *374:9 0
15 *188:10 *374:34 0
16 *582:A *188:10 0
17 *158:16 *188:10 0
18 *166:16 *188:10 0
*RES
1 *599:X *188:10 23.5679 
2 *188:10 *606:A 16.3893 
3 *188:10 *628:A1 15.4429 
*END

*D_NET *189 0.000431573
*CONN
*I *605:A I *D sky130_fd_sc_hd__xnor2_1
*I *600:Y O *D sky130_fd_sc_hd__nand2_1
*CAP
1 *605:A 0.000215787
2 *600:Y 0.000215787
3 *605:A *579:A 0
4 *605:A *605:B 0
5 *605:A *194:8 0
6 *605:A *200:14 0
7 *605:A *373:118 0
8 *605:A *375:78 0
*RES
1 *600:Y *605:A 32.2607 
*END

*D_NET *190 0.000233909
*CONN
*I *602:B I *D sky130_fd_sc_hd__nor2_1
*I *601:Y O *D sky130_fd_sc_hd__nand2_1
*CAP
1 *602:B 0.000116955
2 *601:Y 0.000116955
3 *602:B *539:A 0
4 *602:B *191:10 0
5 *602:B *346:69 0
6 *602:B *347:70 0
7 *602:A *602:B 0
*RES
1 *601:Y *602:B 30.1 
*END

*D_NET *191 0.00059591
*CONN
*I *604:A I *D sky130_fd_sc_hd__nor2_1
*I *634:B1 I *D sky130_fd_sc_hd__a31oi_1
*I *602:Y O *D sky130_fd_sc_hd__nor2_1
*CAP
1 *604:A 4.02144e-05
2 *634:B1 0.000118564
3 *602:Y 0.000139176
4 *191:10 0.000297955
5 *604:A *579:A 0
6 *634:B1 *579:A 0
7 *634:B1 *196:12 0
8 *634:B1 *346:69 0
9 *634:B1 *373:112 0
10 *191:10 *604:B 0
11 *191:10 *344:106 0
12 *191:10 *346:69 0
13 *602:B *191:10 0
*RES
1 *602:Y *191:10 21.4607 
2 *191:10 *634:B1 20.9071 
3 *191:10 *604:A 10.2643 
*END

*D_NET *192 0.00037759
*CONN
*I *604:B I *D sky130_fd_sc_hd__nor2_1
*I *603:Y O *D sky130_fd_sc_hd__a22oi_1
*CAP
1 *604:B 0.000188795
2 *603:Y 0.000188795
3 *604:B *603:A2 0
4 *604:B *344:106 0
5 *604:B *347:48 0
6 *604:B *348:81 0
7 *604:B *372:87 0
8 *602:A *604:B 0
9 *191:10 *604:B 0
*RES
1 *603:Y *604:B 31.7607 
*END

*D_NET *193 0.000689987
*CONN
*I *634:A3 I *D sky130_fd_sc_hd__a31oi_1
*I *605:B I *D sky130_fd_sc_hd__xnor2_1
*I *604:Y O *D sky130_fd_sc_hd__nor2_1
*CAP
1 *634:A3 4.27813e-05
2 *605:B 9.79692e-05
3 *604:Y 0.000204243
4 *193:12 0.000344994
5 *605:B *200:14 0
6 *605:B *373:118 0
7 *634:A3 *346:69 0
8 *193:12 *579:A 0
9 *193:12 *196:12 0
10 *193:12 *344:106 0
11 *193:12 *346:69 0
12 *193:12 *348:81 0
13 *193:12 *375:78 0
14 *605:A *605:B 0
*RES
1 *604:Y *193:12 22.8179 
2 *193:12 *605:B 11.4786 
3 *193:12 *634:A3 10.2643 
*END

*D_NET *194 0.000861015
*CONN
*I *628:A2 I *D sky130_fd_sc_hd__a21oi_1
*I *606:B I *D sky130_fd_sc_hd__xnor2_1
*I *605:Y O *D sky130_fd_sc_hd__xnor2_1
*CAP
1 *628:A2 0.000312799
2 *606:B 4.53482e-05
3 *605:Y 7.23606e-05
4 *194:8 0.000430508
5 *606:B *195:8 0
6 *606:B *200:14 0
7 *628:A2 *609:B 0
8 *628:A2 *612:A 0
9 *628:A2 *613:A 0
10 *628:A2 *628:B1 0
11 *628:A2 *195:8 0
12 *628:A2 *215:22 0
13 *628:A2 *373:137 0
14 *628:A2 *374:34 0
15 *628:A2 *375:78 0
16 *194:8 *373:118 0
17 *194:8 *375:78 0
18 *605:A *194:8 0
*RES
1 *605:Y *194:8 15.4429 
2 *194:8 *606:B 14.7464 
3 *194:8 *628:A2 20.4964 
*END

*D_NET *195 0.000721196
*CONN
*I *612:A I *D sky130_fd_sc_hd__nor2_1
*I *613:A I *D sky130_fd_sc_hd__xnor2_1
*I *606:Y O *D sky130_fd_sc_hd__xnor2_1
*CAP
1 *612:A 9.40703e-05
2 *613:A 0.000124921
3 *606:Y 0.000141606
4 *195:8 0.000360598
5 *612:A *609:B 0
6 *612:A *612:B 0
7 *612:A *373:137 0
8 *613:A *613:B 0
9 *613:A *626:C 0
10 *613:A *628:B1 0
11 *195:8 *600:B 0
12 *195:8 *200:14 0
13 *195:8 *215:22 0
14 *606:A *613:A 0
15 *606:A *195:8 0
16 *606:B *195:8 0
17 *628:A2 *612:A 0
18 *628:A2 *613:A 0
19 *628:A2 *195:8 0
*RES
1 *606:Y *195:8 12.3179 
2 *195:8 *613:A 11.9071 
3 *195:8 *612:A 20.3714 
*END

*D_NET *196 0.000815982
*CONN
*I *611:A I *D sky130_fd_sc_hd__xnor2_1
*I *627:A I *D sky130_fd_sc_hd__maj3_1
*I *607:Y O *D sky130_fd_sc_hd__nand2_1
*CAP
1 *611:A 0.000231233
2 *627:A 0
3 *607:Y 0.000176758
4 *196:12 0.000407991
5 *611:A *627:B 0
6 *611:A *200:14 0
7 *611:A *346:69 0
8 *196:12 *222:8 0
9 *196:12 *346:69 0
10 *196:12 *346:73 0
11 *196:12 *347:70 0
12 *634:B1 *196:12 0
13 *193:12 *196:12 0
*RES
1 *607:Y *196:12 22.3 
2 *196:12 *627:A 9.3 
3 *196:12 *611:A 14.1571 
*END

*D_NET *197 0.00141017
*CONN
*I *627:B I *D sky130_fd_sc_hd__maj3_1
*I *610:A I *D sky130_fd_sc_hd__xnor2_1
*I *608:X O *D sky130_fd_sc_hd__maj3_1
*CAP
1 *627:B 0.000174738
2 *610:A 5.51986e-05
3 *608:X 0.00047515
4 *197:10 0.000705086
5 *610:A *373:112 0
6 *627:B *345:100 0
7 *627:B *346:69 0
8 *627:B *348:62 0
9 *197:10 *601:A 0
10 *197:10 *345:79 0
11 *197:10 *345:100 0
12 *197:10 *348:62 0
13 *197:10 *372:61 0
14 *608:A *197:10 0
15 *608:B *197:10 0
16 *611:A *627:B 0
17 *160:8 *197:10 0
*RES
1 *608:X *197:10 24.4786 
2 *197:10 *610:A 15.1571 
3 *197:10 *627:B 18.1214 
*END

*D_NET *198 0.000364162
*CONN
*I *627:C I *D sky130_fd_sc_hd__maj3_1
*I *610:B I *D sky130_fd_sc_hd__xnor2_1
*I *609:Y O *D sky130_fd_sc_hd__nand2_1
*CAP
1 *627:C 0
2 *610:B 0.000125844
3 *609:Y 5.62368e-05
4 *198:8 0.000182081
5 *610:B *347:70 0
6 *610:B *348:62 0
7 *198:8 *347:70 0
8 *198:8 *348:62 0
*RES
1 *609:Y *198:8 15.1393 
2 *198:8 *610:B 16.6571 
3 *198:8 *627:C 13.8 
*END

*D_NET *199 0.000235418
*CONN
*I *611:B I *D sky130_fd_sc_hd__xnor2_1
*I *610:Y O *D sky130_fd_sc_hd__xnor2_1
*CAP
1 *611:B 0.000117709
2 *610:Y 0.000117709
3 *611:B *345:100 0
4 *611:B *372:98 0
5 *611:B *373:112 0
*RES
1 *610:Y *611:B 30.1893 
*END

*D_NET *200 0.00159004
*CONN
*I *612:B I *D sky130_fd_sc_hd__nor2_1
*I *613:B I *D sky130_fd_sc_hd__xnor2_1
*I *611:Y O *D sky130_fd_sc_hd__xnor2_1
*CAP
1 *612:B 0.000115226
2 *613:B 8.4707e-05
3 *611:Y 0.000595088
4 *200:14 0.000795021
5 *612:B *215:22 0
6 *612:B *373:137 0
7 *612:B *374:34 0
8 *613:B *628:B1 0
9 *613:B *202:8 0
10 *200:14 *600:B 0
11 *200:14 *202:8 0
12 *200:14 *215:22 0
13 *605:A *200:14 0
14 *605:B *200:14 0
15 *606:A *613:B 0
16 *606:A *200:14 0
17 *606:B *200:14 0
18 *611:A *200:14 0
19 *612:A *612:B 0
20 *613:A *613:B 0
21 *628:A1 *612:B 0
22 *195:8 *200:14 0
*RES
1 *611:Y *200:14 22.1214 
2 *200:14 *613:B 11.0679 
3 *200:14 *612:B 20.8536 
*END

*D_NET *201 0.000208773
*CONN
*I *628:B1 I *D sky130_fd_sc_hd__a21oi_1
*I *612:Y O *D sky130_fd_sc_hd__nor2_1
*CAP
1 *628:B1 0.000104386
2 *612:Y 0.000104386
3 *628:B1 *374:34 0
4 *613:A *628:B1 0
5 *613:B *628:B1 0
6 *628:A2 *628:B1 0
*RES
1 *612:Y *628:B1 20.7786 
*END

*D_NET *202 0.00103445
*CONN
*I *626:C I *D sky130_fd_sc_hd__maj3_1
*I *614:B I *D sky130_fd_sc_hd__xnor2_1
*I *613:Y O *D sky130_fd_sc_hd__xnor2_1
*CAP
1 *626:C 0.000258174
2 *614:B 7.50919e-05
3 *613:Y 0.00018396
4 *202:8 0.000517226
5 *614:B *579:B 0
6 *614:B *615:B 0
7 *626:C out[7] 0
8 *626:C *615:B 0
9 *626:C *204:6 0
10 *202:8 *579:A 0
11 *202:8 *579:B 0
12 *613:A *626:C 0
13 *613:B *202:8 0
14 *614:A *614:B 0
15 *614:A *626:C 0
16 *626:B *626:C 0
17 *200:14 *202:8 0
*RES
1 *613:Y *202:8 13.1393 
2 *202:8 *614:B 11.0679 
3 *202:8 *626:C 14.9607 
*END

*D_NET *203 0.000446637
*CONN
*I *615:B I *D sky130_fd_sc_hd__xnor2_1
*I *614:Y O *D sky130_fd_sc_hd__xnor2_1
*CAP
1 *615:B 0.000223318
2 *614:Y 0.000223318
3 *615:B *579:B 0
4 *614:A *615:B 0
5 *614:B *615:B 0
6 *626:C *615:B 0
7 *186:12 *615:B 0
*RES
1 *614:Y *615:B 23.2607 
*END

*D_NET *204 0.00103873
*CONN
*I *616:SLEEP I *D sky130_fd_sc_hd__lpflow_inputiso1p_1
*I *617:B I *D sky130_fd_sc_hd__xor2_1
*I *615:Y O *D sky130_fd_sc_hd__xnor2_1
*CAP
1 *616:SLEEP 0.000106525
2 *617:B 0.000193371
3 *615:Y 0.000219468
4 *204:6 0.000519365
5 *616:SLEEP out[7] 0
6 *617:B out[7] 0
7 *617:B *206:10 0
8 *204:6 out[7] 0
9 *596:A2 *617:B 0
10 *617:A *617:B 0
11 *626:B *204:6 0
12 *626:C *204:6 0
13 *186:12 *204:6 0
*RES
1 *615:Y *204:6 13.9429 
2 *204:6 *617:B 13.3357 
3 *204:6 *616:SLEEP 12.4071 
*END

*D_NET *205 0.000377241
*CONN
*I *645:A I *D sky130_fd_sc_hd__nand3_1
*I *644:A1 I *D sky130_fd_sc_hd__a21oi_1
*I *616:X O *D sky130_fd_sc_hd__lpflow_inputiso1p_1
*CAP
1 *645:A 0
2 *644:A1 7.72202e-05
3 *616:X 0.0001114
4 *205:12 0.000188621
5 *644:A1 *644:A2 0
6 *644:A1 *644:B1 0
7 *644:A1 *645:B 0
8 *644:A1 *645:C 0
9 *644:A1 *231:10 0
10 *205:12 out[7] 0
11 *205:12 *644:A2 0
12 *205:12 *207:23 0
13 *205:12 *232:12 0
*RES
1 *616:X *205:12 20.7821 
2 *205:12 *644:A1 11.1214 
3 *205:12 *645:A 9.3 
*END

*D_NET *206 0.00069648
*CONN
*I *619:C I *D sky130_fd_sc_hd__nor3_1
*I *618:B1 I *D sky130_fd_sc_hd__o21ai_0
*I *617:X O *D sky130_fd_sc_hd__xor2_1
*CAP
1 *619:C 0.00016428
2 *618:B1 0
3 *617:X 0.00018396
4 *206:10 0.00034824
5 *619:C *620:A 0
6 *619:C *620:SLEEP 0
7 *206:10 out[7] 0
8 *617:A *206:10 0
9 *617:B *206:10 0
10 *618:A1 *619:C 0
11 *618:A2 *619:C 0
12 *618:A2 *206:10 0
13 *178:19 *619:C 0
*RES
1 *617:X *206:10 13.2643 
2 *206:10 *618:B1 9.3 
3 *206:10 *619:C 12.7286 
*END

*D_NET *207 0.00129588
*CONN
*I *644:A2 I *D sky130_fd_sc_hd__a21oi_1
*I *645:B I *D sky130_fd_sc_hd__nand3_1
*I *620:A I *D sky130_fd_sc_hd__lpflow_isobufsrc_1
*I *618:Y O *D sky130_fd_sc_hd__o21ai_0
*CAP
1 *644:A2 0.000115723
2 *645:B 2.0535e-05
3 *620:A 0.000163425
4 *618:Y 5.89896e-05
5 *207:23 0.000425528
6 *207:8 0.000511683
7 *620:A out[7] 0
8 *620:A *620:SLEEP 0
9 *644:A2 out[7] 0
10 *644:A2 *645:C 0
11 *644:A2 *653:A 0
12 *644:A2 *231:10 0
13 *644:A2 *232:12 0
14 *207:23 out[7] 0
15 *207:23 *645:C 0
16 *207:23 *647:A 0
17 *207:23 *652:C 0
18 *207:23 *234:6 0
19 *616:A *207:8 0
20 *619:C *620:A 0
21 *644:A1 *644:A2 0
22 *644:A1 *645:B 0
23 *205:12 *644:A2 0
24 *205:12 *207:23 0
*RES
1 *618:Y *207:8 15.1393 
2 *207:8 *620:A 17.2107 
3 *207:8 *207:23 10.7679 
4 *207:23 *645:B 9.72857 
5 *207:23 *644:A2 11.9071 
*END

*D_NET *208 0.000358507
*CONN
*I *620:SLEEP I *D sky130_fd_sc_hd__lpflow_isobufsrc_1
*I *619:Y O *D sky130_fd_sc_hd__nor3_1
*CAP
1 *620:SLEEP 0.000179254
2 *619:Y 0.000179254
3 *620:SLEEP out[7] 0
4 *619:C *620:SLEEP 0
5 *620:A *620:SLEEP 0
6 *178:19 *620:SLEEP 0
*RES
1 *619:Y *620:SLEEP 22.5464 
*END

*D_NET *209 0.00132485
*CONN
*I *625:C I *D sky130_fd_sc_hd__maj3_1
*I *621:C I *D sky130_fd_sc_hd__xnor3_1
*I *620:X O *D sky130_fd_sc_hd__lpflow_isobufsrc_1
*CAP
1 *625:C 0.000210484
2 *621:C 0.000451939
3 *620:X 0
4 *209:4 0.000662423
5 *621:C out[12] 0
6 *621:C out[7] 0
7 *621:C *381:107 0
8 *621:C *383:9 0
9 *625:C out[7] 0
10 *625:C *647:A 0
11 *625:B *621:C 0
12 *184:16 *621:C 0
*RES
1 *620:X *209:4 9.3 
2 *209:4 *621:C 27.8893 
3 *209:4 *625:C 14.4964 
*END

*D_NET *210 5.13376e-05
*CONN
*I *623:A2 I *D sky130_fd_sc_hd__a21oi_1
*I *621:X O *D sky130_fd_sc_hd__xnor3_1
*CAP
1 *623:A2 2.56688e-05
2 *621:X 2.56688e-05
3 *623:A2 out[7] 0
4 *623:A2 *595:A 0
5 *623:A2 *623:B1 0
6 *623:A2 *381:107 0
*RES
1 *621:X *623:A2 19.1357 
*END

*D_NET *211 0.000374836
*CONN
*I *623:B1 I *D sky130_fd_sc_hd__a21oi_1
*I *622:Y O *D sky130_fd_sc_hd__o21ai_0
*CAP
1 *623:B1 0.000187418
2 *622:Y 0.000187418
3 *623:B1 *595:A 0
4 *623:B1 *622:A2 0
5 *623:B1 *350:10 0
6 *623:B1 *381:111 0
7 *623:B1 *381:119 0
8 *623:B1 *383:21 0
9 *623:A2 *623:B1 0
*RES
1 *622:Y *623:B1 31.6357 
*END

*D_NET *212 0.000396072
*CONN
*I *624:B1 I *D sky130_fd_sc_hd__a21o_1
*I *623:Y O *D sky130_fd_sc_hd__a21oi_1
*CAP
1 *624:B1 0.000198036
2 *623:Y 0.000198036
3 *624:B1 out[10] 0
4 *624:B1 *341:42 0
5 *624:B1 *365:79 0
6 *624:B1 *381:119 0
7 *624:B1 *383:39 0
*RES
1 *623:Y *624:B1 31.9393 
*END

*D_NET *213 0.000693207
*CONN
*I *648:A I *D sky130_fd_sc_hd__xnor2_1
*I *652:B I *D sky130_fd_sc_hd__maj3_1
*I *625:X O *D sky130_fd_sc_hd__maj3_1
*CAP
1 *648:A 0.000167275
2 *652:B 0
3 *625:X 0.000179328
4 *213:10 0.000346603
5 *648:A *648:B 0
6 *648:A *650:A2 0
7 *648:A *239:12 0
8 *648:A *351:56 0
9 *213:10 *646:B_N 0
10 *213:10 *647:A 0
11 *213:10 *652:C 0
12 *213:10 *350:56 0
13 *213:10 *381:103 0
*RES
1 *625:X *213:10 22.3714 
2 *213:10 *652:B 9.3 
3 *213:10 *648:A 12.8536 
*END

*D_NET *214 0.000669137
*CONN
*I *642:A I *D sky130_fd_sc_hd__nor2_1
*I *643:A I *D sky130_fd_sc_hd__xnor2_1
*I *626:X O *D sky130_fd_sc_hd__maj3_1
*CAP
1 *642:A 0
2 *643:A 0.000144451
3 *626:X 0.000190118
4 *214:12 0.000334569
5 *643:A *642:B 0
6 *643:A *229:6 0
7 *643:A *231:10 0
8 *643:A *385:47 0
9 *214:12 out[7] 0
10 *214:12 *640:B 0
11 *214:12 *229:6 0
12 *214:12 *231:10 0
13 *214:12 *360:66 0
14 *214:12 *385:47 0
*RES
1 *626:X *214:12 22.425 
2 *214:12 *643:A 21.4964 
3 *214:12 *642:A 9.3 
*END

*D_NET *215 0.00196116
*CONN
*I *654:A I *D sky130_fd_sc_hd__maj3_1
*I *641:A I *D sky130_fd_sc_hd__xnor2_1
*I *627:X O *D sky130_fd_sc_hd__maj3_1
*CAP
1 *654:A 0.000203639
2 *641:A 0
3 *627:X 0.000776942
4 *215:22 0.000980581
5 *654:A *640:B 0
6 *654:A *654:C 0
7 *654:A *227:20 0
8 *654:A *229:6 0
9 *215:22 out[7] 0
10 *215:22 *600:B 0
11 *215:22 *609:B 0
12 *215:22 *641:B 0
13 *215:22 *656:A 0
14 *215:22 *227:20 0
15 *215:22 *229:6 0
16 *215:22 *345:100 0
17 *215:22 *348:62 0
18 *215:22 *373:137 0
19 *215:22 *374:34 0
20 *215:22 *374:38 0
21 *215:22 *375:99 0
22 *612:B *215:22 0
23 *628:A2 *215:22 0
24 *195:8 *215:22 0
25 *200:14 *215:22 0
*RES
1 *627:X *215:22 44.05 
2 *215:22 *641:A 9.3 
3 *215:22 *654:A 13.55 
*END

*D_NET *216 0.00069019
*CONN
*I *640:A I *D sky130_fd_sc_hd__xnor2_1
*I *654:B I *D sky130_fd_sc_hd__maj3_1
*I *628:Y O *D sky130_fd_sc_hd__a21oi_1
*CAP
1 *640:A 0
2 *654:B 9.91025e-05
3 *628:Y 0.000245992
4 *216:14 0.000345095
5 *654:B *640:B 0
6 *654:B *360:66 0
7 *654:B *385:47 0
8 *216:14 out[7] 0
9 *216:14 *640:B 0
10 *216:14 *641:B 0
11 *216:14 *227:20 0
12 *216:14 *374:34 0
*RES
1 *628:Y *216:14 14.6214 
2 *216:14 *654:B 20.55 
3 *216:14 *640:A 9.3 
*END

*D_NET *217 0.00146342
*CONN
*I *663:A I *D sky130_fd_sc_hd__xor2_1
*I *662:A I *D sky130_fd_sc_hd__nor2b_1
*I *630:B I *D sky130_fd_sc_hd__nor2_1
*I *629:Y O *D sky130_fd_sc_hd__nand2_1
*CAP
1 *663:A 0
2 *662:A 0.000193625
3 *630:B 0.000111381
4 *629:Y 0.000183104
5 *217:25 0.000437227
6 *217:8 0.000538086
7 *630:B *638:B 0
8 *630:B *218:6 0
9 *630:B *226:10 0
10 *630:B *242:10 0
11 *630:B *374:66 0
12 *662:A *660:A2 0
13 *662:A *662:B_N 0
14 *662:A *676:A 0
15 *662:A *676:B 0
16 *662:A *676:C 0
17 *662:A *683:B 0
18 *662:A *248:10 0
19 *662:A *262:12 0
20 *217:8 *572:B 0
21 *217:8 *629:B 0
22 *217:8 *657:B 0
23 *217:8 *677:B1 0
24 *217:25 *657:A 0
25 *217:25 *676:A 0
26 *217:25 *226:10 0
27 *217:25 *242:10 0
28 *217:25 *252:10 0
29 *630:A *217:8 0
*RES
1 *629:Y *217:8 17.6214 
2 *217:8 *630:B 16.2821 
3 *217:8 *217:25 9.83928 
4 *217:25 *662:A 22.5143 
5 *217:25 *663:A 9.3 
*END

*D_NET *218 0.0016489
*CONN
*I *657:B I *D sky130_fd_sc_hd__nand2_1
*I *638:A I *D sky130_fd_sc_hd__or3_1
*I *632:A I *D sky130_fd_sc_hd__nor2_1
*I *660:A2 I *D sky130_fd_sc_hd__a21oi_1
*I *659:B1 I *D sky130_fd_sc_hd__a21oi_1
*I *630:Y O *D sky130_fd_sc_hd__nor2_1
*CAP
1 *657:B 0.000207198
2 *638:A 2.0535e-05
3 *632:A 8.29787e-05
4 *660:A2 0.000232773
5 *659:B1 4.92646e-05
6 *630:Y 0
7 *218:14 0.000305633
8 *218:12 0.000213288
9 *218:6 0.00022864
10 *218:4 0.00030859
11 *632:A *638:C 0
12 *632:A *347:83 0
13 *632:A *374:53 0
14 *638:A *572:B 0
15 *638:A *659:A2 0
16 *657:B *572:B 0
17 *657:B *629:A 0
18 *657:B *629:B 0
19 *657:B *657:A 0
20 *657:B *664:B 0
21 *657:B *348:54 0
22 *659:B1 *347:99 0
23 *659:B1 *374:53 0
24 *660:A2 *572:A 0
25 *660:A2 *572:B 0
26 *660:A2 *676:A 0
27 *660:A2 *243:12 0
28 *660:A2 *246:10 0
29 *660:A2 *248:10 0
30 *660:A2 *374:53 0
31 *660:A2 *374:66 0
32 *660:A2 *374:102 0
33 *218:6 *572:B 0
34 *218:12 *347:83 0
35 *218:12 *347:87 0
36 *630:A *638:A 0
37 *630:A *657:B 0
38 *630:A *218:6 0
39 *630:A *218:12 0
40 *630:B *218:6 0
41 *662:A *660:A2 0
42 *217:8 *657:B 0
*RES
1 *630:Y *218:4 9.3 
2 *218:4 *218:6 2.17857 
3 *218:6 *218:12 6.80357 
4 *218:12 *218:14 0.535714 
5 *218:14 *659:B1 14.8714 
6 *218:14 *660:A2 19.0857 
7 *218:12 *632:A 15.7464 
8 *218:6 *638:A 9.72857 
9 *218:4 *657:B 22.9429 
*END

*D_NET *219 0.000972344
*CONN
*I *632:B I *D sky130_fd_sc_hd__nor2_1
*I *638:B I *D sky130_fd_sc_hd__or3_1
*I *631:Y O *D sky130_fd_sc_hd__a22oi_1
*CAP
1 *632:B 0.000237222
2 *638:B 0.000205099
3 *631:Y 4.38508e-05
4 *219:6 0.000486172
5 *632:B *631:A2 0
6 *632:B *639:A 0
7 *632:B *225:12 0
8 *632:B *227:20 0
9 *632:B *347:83 0
10 *632:B *347:87 0
11 *632:B *347:99 0
12 *632:B *375:99 0
13 *638:B *572:B 0
14 *638:B *638:C 0
15 *638:B *677:B1 0
16 *638:B *226:10 0
17 *638:B *242:10 0
18 *638:B *347:70 0
19 *219:6 *225:12 0
20 *630:A *638:B 0
21 *630:B *638:B 0
*RES
1 *631:Y *219:6 10.2464 
2 *219:6 *638:B 22.8357 
3 *219:6 *632:B 14.2821 
*END

*D_NET *220 0.000210484
*CONN
*I *639:A I *D sky130_fd_sc_hd__xor2_1
*I *632:Y O *D sky130_fd_sc_hd__nor2_1
*CAP
1 *639:A 0.000105242
2 *632:Y 0.000105242
3 *639:A *225:12 0
4 *639:A *227:20 0
5 *639:A *375:99 0
6 *632:B *639:A 0
*RES
1 *632:Y *639:A 20.7964 
*END

*D_NET *221 0.000537333
*CONN
*I *637:A I *D sky130_fd_sc_hd__xnor2_1
*I *655:A I *D sky130_fd_sc_hd__maj3_1
*I *633:Y O *D sky130_fd_sc_hd__nand2_1
*CAP
1 *637:A 0.000203639
2 *655:A 0
3 *633:Y 6.50276e-05
4 *221:6 0.000268667
5 *637:A *633:B 0
6 *637:A *655:B 0
7 *637:A *655:C 0
8 *637:A *225:12 0
9 *637:A *227:20 0
10 *637:A *242:10 0
11 *221:6 *346:92 0
*RES
1 *633:Y *221:6 10.6571 
2 *221:6 *655:A 9.3 
3 *221:6 *637:A 13.675 
*END

*D_NET *222 0.000848877
*CONN
*I *655:B I *D sky130_fd_sc_hd__maj3_1
*I *636:A I *D sky130_fd_sc_hd__xnor2_1
*I *634:Y O *D sky130_fd_sc_hd__a31oi_1
*CAP
1 *655:B 0.000122018
2 *636:A 0
3 *634:Y 0.00030242
4 *222:8 0.000424439
5 *655:B *655:C 0
6 *655:B *346:92 0
7 *655:B *347:70 0
8 *222:8 *346:73 0
9 *222:8 *346:92 0
10 *222:8 *347:70 0
11 *637:A *655:B 0
12 *196:12 *222:8 0
*RES
1 *634:Y *222:8 20.6036 
2 *222:8 *636:A 13.8 
3 *222:8 *655:B 16.5857 
*END

*D_NET *223 0.000698725
*CONN
*I *655:C I *D sky130_fd_sc_hd__maj3_1
*I *636:B I *D sky130_fd_sc_hd__xnor2_1
*I *635:Y O *D sky130_fd_sc_hd__nand2_1
*CAP
1 *655:C 0.000158456
2 *636:B 6.48702e-05
3 *635:Y 0.000126036
4 *223:10 0.000349362
5 *636:B *346:92 0
6 *636:B *373:137 0
7 *636:B *375:78 0
8 *655:C *347:70 0
9 *655:C *373:137 0
10 *223:10 *633:B 0
11 *223:10 *346:92 0
12 *223:10 *375:78 0
13 *637:A *655:C 0
14 *655:B *655:C 0
*RES
1 *635:Y *223:10 16.6036 
2 *223:10 *636:B 15.3714 
3 *223:10 *655:C 26.4429 
*END

*D_NET *224 0.000301518
*CONN
*I *637:B I *D sky130_fd_sc_hd__xnor2_1
*I *636:Y O *D sky130_fd_sc_hd__xnor2_1
*CAP
1 *637:B 0.000150759
2 *636:Y 0.000150759
3 *637:B *348:62 0
4 *637:B *372:98 0
*RES
1 *636:Y *637:B 30.9036 
*END

*D_NET *225 0.00100822
*CONN
*I *639:B I *D sky130_fd_sc_hd__xor2_1
*I *638:C I *D sky130_fd_sc_hd__or3_1
*I *637:Y O *D sky130_fd_sc_hd__xnor2_1
*CAP
1 *639:B 0
2 *638:C 0.000115226
3 *637:Y 0.000388882
4 *225:12 0.000504108
5 *638:C *572:A 0
6 *638:C *572:B 0
7 *638:C *347:83 0
8 *638:C *374:53 0
9 *225:12 *631:A2 0
10 *225:12 *227:20 0
11 *225:12 *348:54 0
12 *632:A *638:C 0
13 *632:B *225:12 0
14 *637:A *225:12 0
15 *638:B *638:C 0
16 *639:A *225:12 0
17 *219:6 *225:12 0
*RES
1 *637:Y *225:12 17.8893 
2 *225:12 *638:C 20.8536 
3 *225:12 *639:B 9.3 
*END

*D_NET *226 0.000711434
*CONN
*I *676:A I *D sky130_fd_sc_hd__maj3_1
*I *664:A I *D sky130_fd_sc_hd__xnor2_1
*I *638:X O *D sky130_fd_sc_hd__or3_1
*CAP
1 *676:A 0.000179289
2 *664:A 4.53482e-05
3 *638:X 0.00013108
4 *226:10 0.000355717
5 *664:A *657:A 0
6 *664:A *677:B1 0
7 *676:A *676:B 0
8 *676:A *374:102 0
9 *226:10 *677:B1 0
10 *226:10 *374:66 0
11 *630:B *226:10 0
12 *638:B *226:10 0
13 *660:A2 *676:A 0
14 *662:A *676:A 0
15 *217:25 *676:A 0
16 *217:25 *226:10 0
*RES
1 *638:X *226:10 16.6929 
2 *226:10 *664:A 14.7464 
3 *226:10 *676:A 17.8714 
*END

*D_NET *227 0.0014824
*CONN
*I *654:C I *D sky130_fd_sc_hd__maj3_1
*I *640:B I *D sky130_fd_sc_hd__xnor2_1
*I *639:X O *D sky130_fd_sc_hd__xor2_1
*CAP
1 *654:C 2.0535e-05
2 *640:B 0.000124771
3 *639:X 0.000595895
4 *227:20 0.000741201
5 *640:B *360:66 0
6 *227:20 *633:B 0
7 *227:20 *635:A 0
8 *227:20 *641:B 0
9 *227:20 *656:A 0
10 *227:20 *346:92 0
11 *227:20 *374:53 0
12 *227:20 *375:99 0
13 *632:B *227:20 0
14 *637:A *227:20 0
15 *639:A *227:20 0
16 *654:A *640:B 0
17 *654:A *654:C 0
18 *654:A *227:20 0
19 *654:B *640:B 0
20 *214:12 *640:B 0
21 *215:22 *227:20 0
22 *216:14 *640:B 0
23 *216:14 *227:20 0
24 *225:12 *227:20 0
*RES
1 *639:X *227:20 31.0321 
2 *227:20 *640:B 21.0857 
3 *227:20 *654:C 9.72857 
*END

*D_NET *228 0.000462173
*CONN
*I *641:B I *D sky130_fd_sc_hd__xnor2_1
*I *640:Y O *D sky130_fd_sc_hd__xnor2_1
*CAP
1 *641:B 0.000231086
2 *640:Y 0.000231086
3 *641:B *360:66 0
4 *641:B *374:34 0
5 *641:B *374:53 0
6 *215:22 *641:B 0
7 *216:14 *641:B 0
8 *227:20 *641:B 0
*RES
1 *640:Y *641:B 32.6536 
*END

*D_NET *229 0.00113726
*CONN
*I *642:B I *D sky130_fd_sc_hd__nor2_1
*I *643:B I *D sky130_fd_sc_hd__xnor2_1
*I *641:Y O *D sky130_fd_sc_hd__xnor2_1
*CAP
1 *642:B 0.000125844
2 *643:B 4.62038e-05
3 *641:Y 0.000396583
4 *229:6 0.000568631
5 *642:B *653:A 0
6 *642:B *385:47 0
7 *643:B *231:10 0
8 *229:6 *231:10 0
9 *229:6 *241:10 0
10 *229:6 *375:105 0
11 *643:A *642:B 0
12 *643:A *229:6 0
13 *654:A *229:6 0
14 *214:12 *229:6 0
15 *215:22 *229:6 0
*RES
1 *641:Y *229:6 17.6393 
2 *229:6 *643:B 10.2643 
3 *229:6 *642:B 21.1571 
*END

*D_NET *230 0.000396072
*CONN
*I *653:A I *D sky130_fd_sc_hd__nor2_1
*I *642:Y O *D sky130_fd_sc_hd__nor2_1
*CAP
1 *653:A 0.000198036
2 *642:Y 0.000198036
3 *653:A out[7] 0
4 *653:A *231:10 0
5 *653:A *232:12 0
6 *653:A *385:47 0
7 *642:B *653:A 0
8 *644:A2 *653:A 0
*RES
1 *642:Y *653:A 31.9393 
*END

*D_NET *231 0.000892204
*CONN
*I *644:B1 I *D sky130_fd_sc_hd__a21oi_1
*I *645:C I *D sky130_fd_sc_hd__nand3_1
*I *643:Y O *D sky130_fd_sc_hd__xnor2_1
*CAP
1 *644:B1 1.68986e-05
2 *645:C 0.000107916
3 *643:Y 0.000321288
4 *231:10 0.000446102
5 *645:C *646:A 0
6 *645:C *646:B_N 0
7 *645:C *234:6 0
8 *231:10 out[7] 0
9 *231:10 *646:A 0
10 *231:10 *653:B 0
11 *643:A *231:10 0
12 *643:B *231:10 0
13 *644:A1 *644:B1 0
14 *644:A1 *645:C 0
15 *644:A1 *231:10 0
16 *644:A2 *645:C 0
17 *644:A2 *231:10 0
18 *653:A *231:10 0
19 *207:23 *645:C 0
20 *214:12 *231:10 0
21 *229:6 *231:10 0
*RES
1 *643:Y *231:10 16.3357 
2 *231:10 *645:C 11.6214 
3 *231:10 *644:B1 9.86696 
*END

*D_NET *232 0.000523778
*CONN
*I *653:B I *D sky130_fd_sc_hd__nor2_1
*I *646:A I *D sky130_fd_sc_hd__nor2b_1
*I *644:Y O *D sky130_fd_sc_hd__a21oi_1
*CAP
1 *653:B 4.23535e-05
2 *646:A 6.80223e-05
3 *644:Y 0.000151513
4 *232:12 0.000261889
5 *646:A *648:B 0
6 *646:A *234:6 0
7 *232:12 out[7] 0
8 *232:12 *646:B_N 0
9 *644:A2 *232:12 0
10 *645:C *646:A 0
11 *653:A *232:12 0
12 *205:12 *232:12 0
13 *231:10 *646:A 0
14 *231:10 *653:B 0
*RES
1 *644:Y *232:12 21.6929 
2 *232:12 *646:A 10.6571 
3 *232:12 *653:B 10.2464 
*END

*D_NET *233 0.000169317
*CONN
*I *646:B_N I *D sky130_fd_sc_hd__nor2b_1
*I *645:Y O *D sky130_fd_sc_hd__nand3_1
*CAP
1 *646:B_N 8.46584e-05
2 *645:Y 8.46584e-05
3 *646:B_N *234:6 0
4 *645:C *646:B_N 0
5 *213:10 *646:B_N 0
6 *232:12 *646:B_N 0
*RES
1 *645:Y *646:B_N 29.475 
*END

*D_NET *234 0.000611472
*CONN
*I *647:B I *D sky130_fd_sc_hd__xor2_1
*I *652:C I *D sky130_fd_sc_hd__maj3_1
*I *646:Y O *D sky130_fd_sc_hd__nor2b_1
*CAP
1 *647:B 0
2 *652:C 0.000145306
3 *646:Y 0.00016043
4 *234:6 0.000305736
5 *652:C *647:A 0
6 *652:C *650:A2 0
7 *234:6 *648:B 0
8 *234:6 *650:A2 0
9 *645:C *234:6 0
10 *646:A *234:6 0
11 *646:B_N *234:6 0
12 *207:23 *652:C 0
13 *207:23 *234:6 0
14 *213:10 *652:C 0
*RES
1 *646:Y *234:6 12.7107 
2 *234:6 *652:C 21.5143 
3 *234:6 *647:B 9.3 
*END

*D_NET *235 0.000547601
*CONN
*I *648:B I *D sky130_fd_sc_hd__xnor2_1
*I *647:X O *D sky130_fd_sc_hd__xor2_1
*CAP
1 *648:B 0.0002738
2 *647:X 0.0002738
3 *648:B *650:A2 0
4 *646:A *648:B 0
5 *648:A *648:B 0
6 *234:6 *648:B 0
*RES
1 *647:X *648:B 24.725 
*END

*D_NET *236 0.00076547
*CONN
*I *650:A2 I *D sky130_fd_sc_hd__a21oi_1
*I *648:Y O *D sky130_fd_sc_hd__xnor2_1
*CAP
1 *650:A2 0.000382735
2 *648:Y 0.000382735
3 *650:A2 *647:A 0
4 *650:A2 *650:B1 0
5 *650:A2 *240:8 0
6 *650:A2 *351:21 0
7 *648:A *650:A2 0
8 *648:B *650:A2 0
9 *652:C *650:A2 0
10 *234:6 *650:A2 0
*RES
1 *648:Y *650:A2 35.6714 
*END

*D_NET *237 0.000279475
*CONN
*I *650:B1 I *D sky130_fd_sc_hd__a21oi_1
*I *649:Y O *D sky130_fd_sc_hd__o21ai_0
*CAP
1 *650:B1 0.000139737
2 *649:Y 0.000139737
3 *650:B1 *647:A 0
4 *650:B1 *650:A1 0
5 *650:B1 *651:B1 0
6 *650:B1 *381:103 0
7 *650:A2 *650:B1 0
*RES
1 *649:Y *650:B1 30.7429 
*END

*D_NET *238 0.000525354
*CONN
*I *651:B1 I *D sky130_fd_sc_hd__a21o_1
*I *650:Y O *D sky130_fd_sc_hd__a21oi_1
*CAP
1 *651:B1 0.000262677
2 *650:Y 0.000262677
3 *651:B1 *622:B1 0
4 *651:B1 *651:A2 0
5 *651:B1 *350:41 0
6 *651:B1 *350:56 0
7 *651:B1 *381:107 0
8 *650:B1 *651:B1 0
*RES
1 *650:Y *651:B1 24.2071 
*END

*D_NET *239 0.00091741
*CONN
*I *670:A I *D sky130_fd_sc_hd__xnor2_1
*I *674:B I *D sky130_fd_sc_hd__maj3_1
*I *652:X O *D sky130_fd_sc_hd__maj3_1
*CAP
1 *670:A 0.000121071
2 *674:B 2.56688e-05
3 *652:X 0.000311965
4 *239:12 0.000458705
5 *670:A *672:A2 0
6 *670:A *369:13 0
7 *674:B *672:A2 0
8 *674:B *369:13 0
9 *239:12 *669:A 0
10 *239:12 *670:B 0
11 *239:12 *674:C 0
12 *239:12 *310:22 0
13 *239:12 *351:56 0
14 *648:A *239:12 0
*RES
1 *652:X *239:12 25.3357 
2 *239:12 *674:B 9.83571 
3 *239:12 *670:A 11.8893 
*END

*D_NET *240 0.00088273
*CONN
*I *675:A I *D sky130_fd_sc_hd__maj3_1
*I *668:A I *D sky130_fd_sc_hd__xnor2_1
*I *653:Y O *D sky130_fd_sc_hd__nor2_1
*CAP
1 *675:A 0.000141698
2 *668:A 0
3 *653:Y 0.000299667
4 *240:8 0.000441365
5 *675:A *667:B 0
6 *675:A *670:B 0
7 *675:A *369:7 0
8 *675:A *369:13 0
9 *240:8 *667:B 0
10 *240:8 *670:B 0
11 *240:8 *674:C 0
12 *240:8 *241:10 0
13 *650:A2 *240:8 0
*RES
1 *653:Y *240:8 20.6036 
2 *240:8 *668:A 13.8 
3 *240:8 *675:A 16.9964 
*END

*D_NET *241 0.00152381
*CONN
*I *675:B I *D sky130_fd_sc_hd__maj3_1
*I *667:A I *D sky130_fd_sc_hd__xnor2_1
*I *654:X O *D sky130_fd_sc_hd__maj3_1
*CAP
1 *675:B 0.000233786
2 *667:A 6.50276e-05
3 *654:X 0.000463092
4 *241:10 0.000761906
5 *667:A *667:B 0
6 *667:A *668:B 0
7 *667:A *675:C 0
8 *667:A *245:18 0
9 *675:B *667:B 0
10 *675:B *668:B 0
11 *675:B *675:C 0
12 *675:B *692:B 0
13 *675:B *369:7 0
14 *675:B *385:47 0
15 *241:10 *385:47 0
16 *229:6 *241:10 0
17 *240:8 *241:10 0
*RES
1 *654:X *241:10 24.0143 
2 *241:10 *667:A 15.1571 
3 *241:10 *675:B 18.9429 
*END

*D_NET *242 0.00116677
*CONN
*I *676:B I *D sky130_fd_sc_hd__maj3_1
*I *665:A I *D sky130_fd_sc_hd__xor2_1
*I *655:X O *D sky130_fd_sc_hd__maj3_1
*CAP
1 *676:B 0.000136069
2 *665:A 2.56688e-05
3 *655:X 0.000421646
4 *242:10 0.000583384
5 *676:B *664:B 0
6 *676:B *676:C 0
7 *242:10 *629:B 0
8 *242:10 *664:B 0
9 *242:10 *347:70 0
10 *242:10 *373:137 0
11 *630:B *242:10 0
12 *637:A *242:10 0
13 *638:B *242:10 0
14 *662:A *676:B 0
15 *676:A *676:B 0
16 *217:25 *242:10 0
*RES
1 *655:X *242:10 23.2643 
2 *242:10 *665:A 14.3357 
3 *242:10 *676:B 17.0143 
*END

*D_NET *243 0.000692085
*CONN
*I *661:A I *D sky130_fd_sc_hd__xnor2_1
*I *677:A1 I *D sky130_fd_sc_hd__o21ai_0
*I *656:Y O *D sky130_fd_sc_hd__nand2_1
*CAP
1 *661:A 0
2 *677:A1 0.000124921
3 *656:Y 0.000221121
4 *243:12 0.000346042
5 *677:A1 *661:B 0
6 *677:A1 *677:A2 0
7 *677:A1 *263:10 0
8 *243:12 *678:A 0
9 *243:12 *246:10 0
10 *243:12 *263:10 0
11 *243:12 *347:99 0
12 *243:12 *348:28 0
13 *243:12 *374:53 0
14 *243:12 *375:99 0
15 *243:12 *375:105 0
16 *660:A2 *243:12 0
*RES
1 *656:Y *243:12 23.2107 
2 *243:12 *677:A1 11.9071 
3 *243:12 *661:A 9.3 
*END

*D_NET *244 0.000485996
*CONN
*I *677:B1 I *D sky130_fd_sc_hd__o21ai_0
*I *657:Y O *D sky130_fd_sc_hd__nand2_1
*CAP
1 *677:B1 0.000242998
2 *657:Y 0.000242998
3 *677:B1 *572:B 0
4 *677:B1 *629:B 0
5 *677:B1 *657:A 0
6 *677:B1 *664:B 0
7 *630:A *677:B1 0
8 *638:B *677:B1 0
9 *664:A *677:B1 0
10 *217:8 *677:B1 0
11 *226:10 *677:B1 0
*RES
1 *657:Y *677:B1 23.6714 
*END

*D_NET *245 0.000984849
*CONN
*I *693:C I *D sky130_fd_sc_hd__nand3_1
*I *679:A I *D sky130_fd_sc_hd__nor2_1
*I *658:Y O *D sky130_fd_sc_hd__nand2_1
*CAP
1 *693:C 0.000176747
2 *679:A 1.75403e-05
3 *658:Y 0.000298137
4 *245:18 0.000492424
5 *679:A *252:10 0
6 *693:C *680:A1 0
7 *693:C *680:B1 0
8 *693:C *252:10 0
9 *693:C *263:10 0
10 *693:C *278:22 0
11 *245:18 *667:B 0
12 *245:18 *252:10 0
13 *245:18 *347:99 0
14 *245:18 *351:56 0
15 *245:18 *369:7 0
16 *667:A *245:18 0
*RES
1 *658:Y *245:18 25.7821 
2 *245:18 *679:A 9.72857 
3 *245:18 *693:C 22.1214 
*END

*D_NET *246 0.000667653
*CONN
*I *660:B1 I *D sky130_fd_sc_hd__a21oi_1
*I *677:A2 I *D sky130_fd_sc_hd__o21ai_0
*I *659:Y O *D sky130_fd_sc_hd__a21oi_1
*CAP
1 *660:B1 5.62368e-05
2 *677:A2 0.000139467
3 *659:Y 0.000138123
4 *246:10 0.000333826
5 *660:B1 *248:10 0
6 *660:B1 *263:10 0
7 *677:A2 *657:A 0
8 *677:A2 *661:B 0
9 *677:A2 *248:10 0
10 *677:A2 *252:10 0
11 *677:A2 *263:10 0
12 *246:10 *248:10 0
13 *246:10 *263:10 0
14 *246:10 *347:99 0
15 *660:A2 *246:10 0
16 *677:A1 *677:A2 0
17 *243:12 *246:10 0
*RES
1 *659:Y *246:10 16.8893 
2 *246:10 *677:A2 16.7107 
3 *246:10 *660:B1 15.1393 
*END

*D_NET *247 0.000443214
*CONN
*I *661:B I *D sky130_fd_sc_hd__xnor2_1
*I *660:Y O *D sky130_fd_sc_hd__a21oi_1
*CAP
1 *661:B 0.000221607
2 *660:Y 0.000221607
3 *661:B *680:B1 0
4 *661:B *693:A 0
5 *661:B *252:10 0
6 *661:B *263:10 0
7 *661:B *347:99 0
8 *677:A1 *661:B 0
9 *677:A2 *661:B 0
*RES
1 *660:Y *661:B 23.6982 
*END

*D_NET *248 0.000628657
*CONN
*I *662:B_N I *D sky130_fd_sc_hd__nor2b_1
*I *663:B I *D sky130_fd_sc_hd__xor2_1
*I *661:Y O *D sky130_fd_sc_hd__xnor2_1
*CAP
1 *662:B_N 0.000112474
2 *663:B 8.77017e-05
3 *661:Y 0.000114153
4 *248:10 0.000314328
5 *662:B_N *694:B 0
6 *662:B_N *263:10 0
7 *663:B *657:A 0
8 *663:B *252:10 0
9 *248:10 *263:10 0
10 *660:A2 *248:10 0
11 *660:B1 *248:10 0
12 *662:A *662:B_N 0
13 *662:A *248:10 0
14 *677:A2 *248:10 0
15 *246:10 *248:10 0
*RES
1 *661:Y *248:10 16.2821 
2 *248:10 *663:B 15.5679 
3 *248:10 *662:B_N 16.3536 
*END

*D_NET *249 0.000771257
*CONN
*I *694:A I *D sky130_fd_sc_hd__maj3_1
*I *682:A I *D sky130_fd_sc_hd__xnor2_1
*I *662:Y O *D sky130_fd_sc_hd__nor2b_1
*CAP
1 *694:A 0.00021519
2 *682:A 0
3 *662:Y 0.000170439
4 *249:12 0.000385628
5 *694:A *682:B 0
6 *694:A *683:B 0
7 *694:A *694:B 0
8 *694:A *267:10 0
9 *694:A *279:16 0
10 *694:A *377:9 0
11 *249:12 *683:B 0
12 *249:12 *694:B 0
*RES
1 *662:Y *249:12 22.0143 
2 *249:12 *682:A 9.3 
3 *249:12 *694:A 13.8536 
*END

*D_NET *250 0.000658029
*CONN
*I *676:C I *D sky130_fd_sc_hd__maj3_1
*I *664:B I *D sky130_fd_sc_hd__xnor2_1
*I *663:X O *D sky130_fd_sc_hd__xor2_1
*CAP
1 *676:C 8.29787e-05
2 *664:B 0.000181008
3 *663:X 6.50276e-05
4 *250:8 0.000329014
5 *664:B *657:A 0
6 *664:B *665:B 0
7 *250:8 *252:10 0
8 *250:8 *262:12 0
9 *657:B *664:B 0
10 *662:A *676:C 0
11 *676:B *664:B 0
12 *676:B *676:C 0
13 *677:B1 *664:B 0
14 *242:10 *664:B 0
*RES
1 *663:X *250:8 15.1571 
2 *250:8 *664:B 17.8 
3 *250:8 *676:C 15.7464 
*END

*D_NET *251 0.000222801
*CONN
*I *665:B I *D sky130_fd_sc_hd__xor2_1
*I *664:Y O *D sky130_fd_sc_hd__xnor2_1
*CAP
1 *665:B 0.0001114
2 *664:Y 0.0001114
3 *665:B *657:A 0
4 *664:B *665:B 0
*RES
1 *664:Y *665:B 30.0821 
*END

*D_NET *252 0.00187154
*CONN
*I *666:A I *D sky130_fd_sc_hd__clkinv_1
*I *667:B I *D sky130_fd_sc_hd__xnor2_1
*I *665:X O *D sky130_fd_sc_hd__xor2_1
*CAP
1 *666:A 0
2 *667:B 0.000140895
3 *665:X 0.000794877
4 *252:10 0.000935772
5 *667:B *668:B 0
6 *667:B *369:7 0
7 *252:10 *657:A 0
8 *252:10 *262:12 0
9 *252:10 *265:14 0
10 *252:10 *278:22 0
11 *661:B *252:10 0
12 *663:B *252:10 0
13 *667:A *667:B 0
14 *675:A *667:B 0
15 *675:B *667:B 0
16 *677:A2 *252:10 0
17 *679:A *252:10 0
18 *693:C *252:10 0
19 *217:25 *252:10 0
20 *240:8 *667:B 0
21 *245:18 *667:B 0
22 *245:18 *252:10 0
23 *250:8 *252:10 0
*RES
1 *665:X *252:10 25.8893 
2 *252:10 *667:B 21.3893 
3 *252:10 *666:A 9.3 
*END

*D_NET *253 0.000169414
*CONN
*I *675:C I *D sky130_fd_sc_hd__maj3_1
*I *666:Y O *D sky130_fd_sc_hd__clkinv_1
*CAP
1 *675:C 8.4707e-05
2 *666:Y 8.4707e-05
3 *675:C *668:B 0
4 *667:A *675:C 0
5 *675:B *675:C 0
*RES
1 *666:Y *675:C 20.3679 
*END

*D_NET *254 0.000452626
*CONN
*I *668:B I *D sky130_fd_sc_hd__xnor2_1
*I *667:Y O *D sky130_fd_sc_hd__xnor2_1
*CAP
1 *668:B 0.000226313
2 *667:Y 0.000226313
3 *668:B *255:12 0
4 *668:B *351:56 0
5 *668:B *369:13 0
6 *667:A *668:B 0
7 *667:B *668:B 0
8 *675:B *668:B 0
9 *675:C *668:B 0
*RES
1 *667:Y *668:B 23.3857 
*END

*D_NET *255 0.000855326
*CONN
*I *674:C I *D sky130_fd_sc_hd__maj3_1
*I *669:B I *D sky130_fd_sc_hd__xor2_1
*I *668:Y O *D sky130_fd_sc_hd__xnor2_1
*CAP
1 *674:C 9.91025e-05
2 *669:B 2.56688e-05
3 *668:Y 0.000302892
4 *255:12 0.000427663
5 *669:B *351:56 0
6 *674:C *670:B 0
7 *255:12 *670:B 0
8 *255:12 *351:56 0
9 *255:12 *369:13 0
10 *668:B *255:12 0
11 *239:12 *674:C 0
12 *240:8 *674:C 0
*RES
1 *668:Y *255:12 15.7464 
2 *255:12 *669:B 9.83571 
3 *255:12 *674:C 20.55 
*END

*D_NET *256 0.000356713
*CONN
*I *670:B I *D sky130_fd_sc_hd__xnor2_1
*I *669:X O *D sky130_fd_sc_hd__xor2_1
*CAP
1 *670:B 0.000178357
2 *669:X 0.000178357
3 *670:B *669:A 0
4 *670:B *369:7 0
5 *670:B *369:13 0
6 *674:C *670:B 0
7 *675:A *670:B 0
8 *239:12 *670:B 0
9 *240:8 *670:B 0
10 *255:12 *670:B 0
*RES
1 *669:X *670:B 31.5286 
*END

*D_NET *257 0.000678511
*CONN
*I *672:A2 I *D sky130_fd_sc_hd__a21oi_1
*I *670:Y O *D sky130_fd_sc_hd__xnor2_1
*CAP
1 *672:A2 0.000339256
2 *670:Y 0.000339256
3 *672:A2 *260:10 0
4 *672:A2 *352:37 0
5 *672:A2 *369:13 0
6 *672:A2 *381:307 0
7 *670:A *672:A2 0
8 *674:B *672:A2 0
*RES
1 *670:Y *672:A2 25.6179 
*END

*D_NET *258 5.13376e-05
*CONN
*I *672:B1 I *D sky130_fd_sc_hd__a21oi_1
*I *671:Y O *D sky130_fd_sc_hd__o21ai_0
*CAP
1 *672:B1 2.56688e-05
2 *671:Y 2.56688e-05
3 *672:B1 *672:A1 0
4 *672:B1 *369:13 0
*RES
1 *671:Y *672:B1 19.1357 
*END

*D_NET *259 0.000403
*CONN
*I *673:B1 I *D sky130_fd_sc_hd__a21o_1
*I *672:Y O *D sky130_fd_sc_hd__a21oi_1
*CAP
1 *673:B1 0.0002015
2 *672:Y 0.0002015
3 *673:B1 *671:A2 0
4 *673:B1 *672:A1 0
5 *673:B1 *352:37 0
6 *673:B1 *381:95 0
7 *673:B1 *381:307 0
*RES
1 *672:Y *673:B1 22.7429 
*END

*D_NET *260 0.00101699
*CONN
*I *687:A I *D sky130_fd_sc_hd__xnor2_1
*I *691:B I *D sky130_fd_sc_hd__maj3_1
*I *674:X O *D sky130_fd_sc_hd__maj3_1
*CAP
1 *687:A 0.000196528
2 *691:B 0
3 *674:X 0.000311965
4 *260:10 0.000508493
5 *687:A *689:A2 0
6 *687:A *691:C 0
7 *687:A *377:9 0
8 *687:A *381:359 0
9 *260:10 *686:A 0
10 *260:10 *690:B1 0
11 *260:10 *691:C 0
12 *672:A2 *260:10 0
*RES
1 *674:X *260:10 20.8357 
2 *260:10 *691:B 13.8 
3 *260:10 *687:A 17.9607 
*END

*D_NET *261 0.000734817
*CONN
*I *685:A I *D sky130_fd_sc_hd__xnor2_1
*I *692:A I *D sky130_fd_sc_hd__maj3_1
*I *675:X O *D sky130_fd_sc_hd__maj3_1
*CAP
1 *685:A 0.00018808
2 *692:A 0
3 *675:X 0.000179328
4 *261:8 0.000367408
5 *685:A *685:B 0
6 *685:A *271:14 0
7 *685:A *369:7 0
8 *685:A *377:9 0
9 *685:A *385:47 0
10 *261:8 *369:7 0
11 *261:8 *385:47 0
*RES
1 *675:X *261:8 17.8714 
2 *261:8 *692:A 13.8 
3 *261:8 *685:A 18.0143 
*END

*D_NET *262 0.00201158
*CONN
*I *692:B I *D sky130_fd_sc_hd__maj3_1
*I *684:A I *D sky130_fd_sc_hd__xor2_1
*I *676:X O *D sky130_fd_sc_hd__maj3_1
*CAP
1 *692:B 0.000237864
2 *684:A 0
3 *676:X 0.000767924
4 *262:12 0.00100579
5 *692:B *267:10 0
6 *692:B *360:64 0
7 *262:12 *683:B 0
8 *262:12 *684:B 0
9 *262:12 *685:B 0
10 *262:12 *265:14 0
11 *262:12 *269:10 0
12 *662:A *262:12 0
13 *675:B *692:B 0
14 *250:8 *262:12 0
15 *252:10 *262:12 0
*RES
1 *676:X *262:12 25.3893 
2 *262:12 *684:A 9.3 
3 *262:12 *692:B 15.3357 
*END

*D_NET *263 0.00116867
*CONN
*I *694:B I *D sky130_fd_sc_hd__maj3_1
*I *683:A I *D sky130_fd_sc_hd__xor2_1
*I *677:Y O *D sky130_fd_sc_hd__o21ai_0
*CAP
1 *694:B 0.000155069
2 *683:A 0
3 *677:Y 0.000429268
4 *263:10 0.000584336
5 *694:B *267:10 0
6 *694:B *278:22 0
7 *263:10 *572:B 0
8 *263:10 *657:A 0
9 *263:10 *693:B 0
10 *263:10 *278:22 0
11 *263:10 *347:87 0
12 *263:10 *347:99 0
13 *263:10 *374:53 0
14 *660:B1 *263:10 0
15 *661:B *263:10 0
16 *662:B_N *694:B 0
17 *662:B_N *263:10 0
18 *677:A1 *263:10 0
19 *677:A2 *263:10 0
20 *693:C *263:10 0
21 *694:A *694:B 0
22 *243:12 *263:10 0
23 *246:10 *263:10 0
24 *248:10 *263:10 0
25 *249:12 *694:B 0
*RES
1 *677:Y *263:10 23.2107 
2 *263:10 *683:A 13.8 
3 *263:10 *694:B 17.3 
*END

*D_NET *264 0.000358657
*CONN
*I *679:B I *D sky130_fd_sc_hd__nor2_1
*I *678:Y O *D sky130_fd_sc_hd__nand2_1
*CAP
1 *679:B 0.000179328
2 *678:Y 0.000179328
3 *679:B out[11] 0
4 *679:B *658:B 0
5 *679:B *347:99 0
6 *679:B *385:47 0
*RES
1 *678:Y *679:B 31.6714 
*END

*D_NET *265 0.00112152
*CONN
*I *705:A I *D sky130_fd_sc_hd__or3_1
*I *681:A I *D sky130_fd_sc_hd__nor2_1
*I *679:Y O *D sky130_fd_sc_hd__nor2_1
*CAP
1 *705:A 0.000344293
2 *681:A 0
3 *679:Y 0.000216467
4 *265:14 0.000560759
5 *705:A out[11] 0
6 *705:A *697:SLEEP 0
7 *705:A *705:B 0
8 *705:A *705:C 0
9 *705:A *278:22 0
10 *705:A *279:16 0
11 *705:A *281:12 0
12 *705:A *289:20 0
13 *705:A *360:66 0
14 *705:A *377:9 0
15 *265:14 *278:22 0
16 *265:14 *360:66 0
17 *252:10 *265:14 0
18 *262:12 *265:14 0
*RES
1 *679:Y *265:14 18.5857 
2 *265:14 *681:A 13.8 
3 *265:14 *705:A 21.5679 
*END

*D_NET *266 0.000568369
*CONN
*I *681:B I *D sky130_fd_sc_hd__nor2_1
*I *680:Y O *D sky130_fd_sc_hd__a22oi_1
*CAP
1 *681:B 0.000284184
2 *680:Y 0.000284184
3 *681:B out[11] 0
4 *681:B *680:A1 0
5 *681:B *267:10 0
6 *681:B *269:10 0
7 *681:B *347:99 0
8 *681:B *360:66 0
*RES
1 *680:Y *681:B 33.9571 
*END

*D_NET *267 0.000779475
*CONN
*I *682:B I *D sky130_fd_sc_hd__xnor2_1
*I *694:C I *D sky130_fd_sc_hd__maj3_1
*I *681:Y O *D sky130_fd_sc_hd__nor2_1
*CAP
1 *682:B 0.000121285
2 *694:C 0
3 *681:Y 0.000268453
4 *267:10 0.000389738
5 *682:B *683:B 0
6 *682:B *269:10 0
7 *267:10 *696:A 0
8 *267:10 *269:10 0
9 *267:10 *279:16 0
10 *681:B *267:10 0
11 *692:B *267:10 0
12 *694:A *682:B 0
13 *694:A *267:10 0
14 *694:B *267:10 0
*RES
1 *681:Y *267:10 15.4071 
2 *267:10 *694:C 9.3 
3 *267:10 *682:B 11.925 
*END

*D_NET *268 0.000590382
*CONN
*I *683:B I *D sky130_fd_sc_hd__xor2_1
*I *682:Y O *D sky130_fd_sc_hd__xnor2_1
*CAP
1 *683:B 0.000295191
2 *682:Y 0.000295191
3 *683:B *269:10 0
4 *662:A *683:B 0
5 *682:B *683:B 0
6 *694:A *683:B 0
7 *249:12 *683:B 0
8 *262:12 *683:B 0
*RES
1 *682:Y *683:B 25.1536 
*END

*D_NET *269 0.00101105
*CONN
*I *692:C I *D sky130_fd_sc_hd__maj3_1
*I *684:B I *D sky130_fd_sc_hd__xor2_1
*I *683:X O *D sky130_fd_sc_hd__xor2_1
*CAP
1 *692:C 9.91025e-05
2 *684:B 2.56688e-05
3 *683:X 0.000380754
4 *269:10 0.000505525
5 *692:C *685:B 0
6 *692:C *385:47 0
7 *269:10 *685:B 0
8 *269:10 *360:64 0
9 *681:B *269:10 0
10 *682:B *269:10 0
11 *683:B *269:10 0
12 *262:12 *684:B 0
13 *262:12 *269:10 0
14 *267:10 *269:10 0
*RES
1 *683:X *269:10 17.3714 
2 *269:10 *684:B 9.83571 
3 *269:10 *692:C 20.55 
*END

*D_NET *270 0.00082477
*CONN
*I *685:B I *D sky130_fd_sc_hd__xnor2_1
*I *684:X O *D sky130_fd_sc_hd__xor2_1
*CAP
1 *685:B 0.000412385
2 *684:X 0.000412385
3 *685:B out[11] 0
4 *685:B *696:B 0
5 *685:B *271:14 0
6 *685:B *277:10 0
7 *685:B *360:64 0
8 *685:B *377:9 0
9 *685:B *385:47 0
10 *685:A *685:B 0
11 *692:C *685:B 0
12 *262:12 *685:B 0
13 *269:10 *685:B 0
*RES
1 *684:X *685:B 36.6714 
*END

*D_NET *271 0.000974671
*CONN
*I *686:B I *D sky130_fd_sc_hd__xor2_1
*I *691:C I *D sky130_fd_sc_hd__maj3_1
*I *685:Y O *D sky130_fd_sc_hd__xnor2_1
*CAP
1 *686:B 0
2 *691:C 0.000135203
3 *685:Y 0.000352133
4 *271:14 0.000487336
5 *691:C *686:A 0
6 *691:C *687:B 0
7 *691:C *689:A2 0
8 *691:C *276:12 0
9 *271:14 *687:B 0
10 *271:14 *360:64 0
11 *271:14 *369:7 0
12 *271:14 *377:9 0
13 *685:A *271:14 0
14 *685:B *271:14 0
15 *687:A *691:C 0
16 *260:10 *691:C 0
*RES
1 *685:Y *271:14 25.9429 
2 *271:14 *691:C 21.3893 
3 *271:14 *686:B 9.3 
*END

*D_NET *272 0.000235418
*CONN
*I *687:B I *D sky130_fd_sc_hd__xnor2_1
*I *686:X O *D sky130_fd_sc_hd__xor2_1
*CAP
1 *687:B 0.000117709
2 *686:X 0.000117709
3 *687:B out[13] 0
4 *687:B *276:12 0
5 *687:B *360:64 0
6 *687:B *369:7 0
7 *691:C *687:B 0
8 *271:14 *687:B 0
*RES
1 *686:X *687:B 30.1893 
*END

*D_NET *273 0.000686212
*CONN
*I *689:A2 I *D sky130_fd_sc_hd__a21oi_1
*I *687:Y O *D sky130_fd_sc_hd__xnor2_1
*CAP
1 *689:A2 0.000343106
2 *687:Y 0.000343106
3 *689:A2 out[13] 0
4 *689:A2 *353:28 0
5 *689:A2 *353:32 0
6 *689:A2 *360:64 0
7 *689:A2 *377:9 0
8 *687:A *689:A2 0
9 *691:C *689:A2 0
*RES
1 *687:Y *689:A2 25.7607 
*END

*D_NET *274 5.13376e-05
*CONN
*I *689:B1 I *D sky130_fd_sc_hd__a21oi_1
*I *688:Y O *D sky130_fd_sc_hd__o21ai_0
*CAP
1 *689:B1 2.56688e-05
2 *688:Y 2.56688e-05
3 *689:B1 *688:A2 0
4 *689:B1 *377:9 0
*RES
1 *688:Y *689:B1 19.1357 
*END

*D_NET *275 0.000816605
*CONN
*I *690:B1 I *D sky130_fd_sc_hd__a21o_1
*I *689:Y O *D sky130_fd_sc_hd__a21oi_1
*CAP
1 *690:B1 0.000408303
2 *689:Y 0.000408303
3 *690:B1 *690:A2 0
4 *690:B1 *310:18 0
5 *690:B1 *360:64 0
6 *260:10 *690:B1 0
*RES
1 *689:Y *690:B1 36.2786 
*END

*D_NET *276 0.000873429
*CONN
*I *704:B I *D sky130_fd_sc_hd__maj3_1
*I *700:A I *D sky130_fd_sc_hd__xnor2_1
*I *691:X O *D sky130_fd_sc_hd__maj3_1
*CAP
1 *704:B 0.000195804
2 *700:A 8.4707e-05
3 *691:X 0.000156203
4 *276:12 0.000436714
5 *700:A out[3] 0
6 *700:A *700:B 0
7 *700:A *289:20 0
8 *704:B *699:A 0
9 *704:B *700:B 0
10 *704:B *704:C 0
11 *704:B *283:12 0
12 *704:B *288:20 0
13 *704:B *381:379 0
14 *276:12 out[3] 0
15 *276:12 *700:B 0
16 *276:12 *369:7 0
17 *276:12 *381:359 0
18 *276:12 *381:379 0
19 *687:B *276:12 0
20 *691:C *276:12 0
*RES
1 *691:X *276:12 21.8 
2 *276:12 *700:A 11.0679 
3 *276:12 *704:B 22.6214 
*END

*D_NET *277 0.00072443
*CONN
*I *697:SLEEP I *D sky130_fd_sc_hd__lpflow_isobufsrc_1
*I *698:A I *D sky130_fd_sc_hd__xnor2_1
*I *692:X O *D sky130_fd_sc_hd__maj3_1
*CAP
1 *697:SLEEP 9.13381e-05
2 *698:A 0.00011829
3 *692:X 0.000152586
4 *277:10 0.000362215
5 *697:SLEEP *698:B 0
6 *697:SLEEP *705:C 0
7 *697:SLEEP *289:20 0
8 *697:SLEEP *377:9 0
9 *698:A out[3] 0
10 *698:A *698:B 0
11 *698:A *289:20 0
12 *698:A *377:9 0
13 *277:10 out[11] 0
14 *277:10 *385:47 0
15 *685:B *277:10 0
16 *705:A *697:SLEEP 0
*RES
1 *692:X *277:10 21.7643 
2 *277:10 *698:A 11.8 
3 *277:10 *697:SLEEP 11.3893 
*END

*D_NET *278 0.00132002
*CONN
*I *695:SLEEP I *D sky130_fd_sc_hd__lpflow_isobufsrc_1
*I *696:A I *D sky130_fd_sc_hd__xnor2_1
*I *693:Y O *D sky130_fd_sc_hd__nand3_1
*CAP
1 *695:SLEEP 0
2 *696:A 0.000142248
3 *693:Y 0.000517764
4 *278:22 0.000660012
5 *696:A *696:B 0
6 *696:A *279:16 0
7 *696:A *360:64 0
8 *278:22 *680:A1 0
9 *278:22 *680:B1 0
10 *278:22 *279:16 0
11 *278:22 *360:66 0
12 *693:C *278:22 0
13 *694:B *278:22 0
14 *705:A *278:22 0
15 *252:10 *278:22 0
16 *263:10 *278:22 0
17 *265:14 *278:22 0
18 *267:10 *696:A 0
*RES
1 *693:Y *278:22 29.925 
2 *278:22 *696:A 12.3 
3 *278:22 *695:SLEEP 9.3 
*END

*D_NET *279 0.000936393
*CONN
*I *695:A I *D sky130_fd_sc_hd__lpflow_isobufsrc_1
*I *696:B I *D sky130_fd_sc_hd__xnor2_1
*I *694:X O *D sky130_fd_sc_hd__maj3_1
*CAP
1 *695:A 0
2 *696:B 0.000159146
3 *694:X 0.00030905
4 *279:16 0.000468196
5 *696:B *377:9 0
6 *279:16 *377:9 0
7 *685:B *696:B 0
8 *694:A *279:16 0
9 *696:A *696:B 0
10 *696:A *279:16 0
11 *705:A *279:16 0
12 *267:10 *279:16 0
13 *278:22 *279:16 0
*RES
1 *694:X *279:16 25.0321 
2 *279:16 *696:B 12.6214 
3 *279:16 *695:A 9.3 
*END

*D_NET *280 0.000251689
*CONN
*I *705:B I *D sky130_fd_sc_hd__or3_1
*I *695:X O *D sky130_fd_sc_hd__lpflow_isobufsrc_1
*CAP
1 *705:B 0.000125844
2 *695:X 0.000125844
3 *705:B out[11] 0
4 *705:A *705:B 0
*RES
1 *695:X *705:B 30.4571 
*END

*D_NET *281 0.000536612
*CONN
*I *698:B I *D sky130_fd_sc_hd__xnor2_1
*I *697:A I *D sky130_fd_sc_hd__lpflow_isobufsrc_1
*I *696:Y O *D sky130_fd_sc_hd__xnor2_1
*CAP
1 *698:B 0.00011829
2 *697:A 0
3 *696:Y 0.000150016
4 *281:12 0.000268306
5 *698:B *705:C 0
6 *698:B *289:20 0
7 *281:12 out[11] 0
8 *697:SLEEP *698:B 0
9 *698:A *698:B 0
10 *705:A *281:12 0
*RES
1 *696:Y *281:12 21.6929 
2 *281:12 *697:A 9.3 
3 *281:12 *698:B 11.8 
*END

*D_NET *282 9.24076e-05
*CONN
*I *705:C I *D sky130_fd_sc_hd__or3_1
*I *697:X O *D sky130_fd_sc_hd__lpflow_isobufsrc_1
*CAP
1 *705:C 4.62038e-05
2 *697:X 4.62038e-05
3 *705:C *289:20 0
4 *705:C *377:9 0
5 *697:SLEEP *705:C 0
6 *698:B *705:C 0
7 *705:A *705:C 0
*RES
1 *697:X *705:C 19.5643 
*END

*D_NET *283 0.00108163
*CONN
*I *699:B I *D sky130_fd_sc_hd__xor2_1
*I *704:C I *D sky130_fd_sc_hd__maj3_1
*I *698:Y O *D sky130_fd_sc_hd__xnor2_1
*CAP
1 *699:B 0
2 *704:C 0.000147595
3 *698:Y 0.00039322
4 *283:12 0.000540816
5 *704:C *699:A 0
6 *704:C *288:20 0
7 *283:12 *699:A 0
8 *283:12 *700:B 0
9 *283:12 *289:20 0
10 *283:12 *369:7 0
11 *704:B *704:C 0
12 *704:B *283:12 0
*RES
1 *698:Y *283:12 26.6393 
2 *283:12 *704:C 12.4429 
3 *283:12 *699:B 9.3 
*END

*D_NET *284 0.000556277
*CONN
*I *700:B I *D sky130_fd_sc_hd__xnor2_1
*I *699:X O *D sky130_fd_sc_hd__xor2_1
*CAP
1 *700:B 0.000278139
2 *699:X 0.000278139
3 *700:B out[3] 0
4 *700:B *289:20 0
5 *700:B *369:7 0
6 *700:A *700:B 0
7 *704:B *700:B 0
8 *276:12 *700:B 0
9 *283:12 *700:B 0
*RES
1 *699:X *700:B 33.475 
*END

*D_NET *285 0.000458953
*CONN
*I *702:A2 I *D sky130_fd_sc_hd__a21oi_1
*I *700:Y O *D sky130_fd_sc_hd__xnor2_1
*CAP
1 *702:A2 0.000229477
2 *700:Y 0.000229477
3 *702:A2 *699:A 0
4 *702:A2 *289:20 0
5 *702:A2 *310:12 0
6 *702:A2 *354:10 0
7 *702:A2 *354:66 0
8 *702:A2 *381:379 0
*RES
1 *700:Y *702:A2 32.5464 
*END

*D_NET *286 5.13376e-05
*CONN
*I *702:B1 I *D sky130_fd_sc_hd__a21oi_1
*I *701:Y O *D sky130_fd_sc_hd__o21ai_0
*CAP
1 *702:B1 2.56688e-05
2 *701:Y 2.56688e-05
3 *702:B1 *701:A2 0
4 *702:B1 *288:20 0
*RES
1 *701:Y *702:B1 19.1357 
*END

*D_NET *287 0.000397334
*CONN
*I *703:B1 I *D sky130_fd_sc_hd__a21o_1
*I *702:Y O *D sky130_fd_sc_hd__a21oi_1
*CAP
1 *703:B1 0.000198667
2 *702:Y 0.000198667
3 *703:B1 *701:A1 0
4 *703:B1 *701:A2 0
5 *703:B1 *701:B1 0
6 *703:B1 *288:20 0
7 *703:B1 *341:15 0
8 *703:B1 *354:12 0
9 *703:B1 *354:30 0
10 *703:B1 *383:267 0
*RES
1 *702:Y *703:B1 31.7429 
*END

*D_NET *288 0.00328389
*CONN
*I *711:B I *D sky130_fd_sc_hd__maj3_1
*I *706:B I *D sky130_fd_sc_hd__xnor3_1
*I *704:X O *D sky130_fd_sc_hd__maj3_1
*CAP
1 *711:B 0
2 *706:B 0.00016428
3 *704:X 0.00147767
4 *288:20 0.00164195
5 *706:B *706:C 0
6 *706:B *711:A 0
7 *706:B *711:C 0
8 *706:B *294:18 0
9 *706:B *355:58 0
10 *288:20 *428:A2 0
11 *288:20 *699:A 0
12 *288:20 *701:A1 0
13 *288:20 *701:A2 0
14 *288:20 *703:A1 0
15 *288:20 *706:C 0
16 *288:20 *711:C 0
17 *288:20 *729:RESET_B 0
18 *288:20 *289:30 0
19 *288:20 *294:6 0
20 *288:20 *294:18 0
21 *288:20 *342:15 0
22 *288:20 *354:30 0
23 *288:20 *354:66 0
24 *288:20 *380:25 0
25 *288:20 *380:36 0
26 *288:20 *381:379 0
27 *288:20 *382:21 0
28 *288:20 *382:196 0
29 *288:20 *383:143 0
30 *288:20 *383:158 0
31 *428:B1 *288:20 0
32 *702:B1 *288:20 0
33 *703:B1 *288:20 0
34 *704:B *288:20 0
35 *704:C *288:20 0
36 *740:D *288:20 0
*RES
1 *704:X *288:20 40.2643 
2 *288:20 *706:B 12.7286 
3 *288:20 *711:B 9.3 
*END

*D_NET *289 0.00515208
*CONN
*I *711:C I *D sky130_fd_sc_hd__maj3_1
*I *706:C I *D sky130_fd_sc_hd__xnor3_1
*I *705:X O *D sky130_fd_sc_hd__or3_1
*CAP
1 *711:C 1.90377e-05
2 *706:C 0.000433375
3 *705:X 0.00201917
4 *289:30 0.000556867
5 *289:20 0.00212363
6 *706:C *707:B1 0
7 *706:C *710:A 0
8 *706:C *355:45 0
9 *706:C *355:58 0
10 *706:C *381:21 0
11 *706:C *383:143 0
12 *289:20 out[3] 0
13 *289:20 *699:A 0
14 *289:20 *723:B1 0
15 *289:20 *354:12 0
16 *289:20 *354:30 0
17 *289:20 *354:66 0
18 *289:20 *360:12 0
19 *289:20 *361:18 0
20 *289:20 *377:9 0
21 *289:30 *357:32 0
22 *289:30 *383:143 0
23 *428:B1 *289:30 0
24 *697:SLEEP *289:20 0
25 *698:A *289:20 0
26 *698:B *289:20 0
27 *700:A *289:20 0
28 *700:B *289:20 0
29 *702:A2 *289:20 0
30 *705:A *289:20 0
31 *705:C *289:20 0
32 *706:B *706:C 0
33 *706:B *711:C 0
34 *283:12 *289:20 0
35 *288:20 *706:C 0
36 *288:20 *711:C 0
37 *288:20 *289:30 0
*RES
1 *705:X *289:20 48.7857 
2 *289:20 *289:30 10.2761 
3 *289:30 *706:C 18.3893 
4 *289:30 *711:C 9.72857 
*END

*D_NET *290 0.000130055
*CONN
*I *708:A2 I *D sky130_fd_sc_hd__a21oi_1
*I *706:X O *D sky130_fd_sc_hd__xnor3_1
*CAP
1 *708:A2 6.50276e-05
2 *706:X 6.50276e-05
3 *708:A2 *708:B1 0
4 *708:A2 *342:15 0
5 *708:A2 *355:16 0
*RES
1 *706:X *708:A2 19.9571 
*END

*D_NET *291 0.000452626
*CONN
*I *708:B1 I *D sky130_fd_sc_hd__a21oi_1
*I *707:Y O *D sky130_fd_sc_hd__o21ai_0
*CAP
1 *708:B1 0.000226313
2 *707:Y 0.000226313
3 *708:B1 *709:B1 0
4 *708:B1 *355:16 0
5 *708:A2 *708:B1 0
*RES
1 *707:Y *708:B1 24.2071 
*END

*D_NET *292 0.000268667
*CONN
*I *709:B1 I *D sky130_fd_sc_hd__a21o_1
*I *708:Y O *D sky130_fd_sc_hd__a21oi_1
*CAP
1 *709:B1 0.000134333
2 *708:Y 0.000134333
3 *709:B1 *709:A2 0
4 *709:B1 *741:RESET_B 0
5 *709:B1 *355:16 0
6 *709:B1 *355:20 0
7 *708:B1 *709:B1 0
*RES
1 *708:Y *709:B1 21.4036 
*END

*D_NET *293 0.000767008
*CONN
*I *715:B1 I *D sky130_fd_sc_hd__o21ai_0
*I *710:Y O *D sky130_fd_sc_hd__nand2_1
*CAP
1 *715:B1 0.000383504
2 *710:Y 0.000383504
3 *715:B1 out[16] 0
4 *715:B1 *713:C 0
5 *715:B1 *714:B 0
6 *715:B1 *715:A1 0
7 *715:B1 *715:A2 0
8 *715:B1 *717:C 0
9 *715:B1 *743:CLK 0
10 *715:B1 *743:RESET_B 0
11 *715:B1 *296:8 0
12 *715:B1 *356:18 0
13 *715:B1 *381:13 0
14 *715:B1 *382:118 0
*RES
1 *710:Y *715:B1 35.9571 
*END

*D_NET *294 0.00113451
*CONN
*I *717:D I *D sky130_fd_sc_hd__nand4_1
*I *713:C I *D sky130_fd_sc_hd__nand3_1
*I *712:A2 I *D sky130_fd_sc_hd__a21oi_1
*I *711:X O *D sky130_fd_sc_hd__maj3_1
*CAP
1 *717:D 0.000155126
2 *713:C 2.26741e-05
3 *712:A2 0
4 *711:X 4.23535e-05
5 *294:18 0.000369776
6 *294:6 0.000544581
7 *713:C *743:RESET_B 0
8 *713:C *381:426 0
9 *717:D *713:A 0
10 *717:D *716:B 0
11 *717:D *717:C 0
12 *717:D *743:RESET_B 0
13 *717:D *356:14 0
14 *717:D *357:20 0
15 *717:D *357:32 0
16 *294:6 *342:15 0
17 *294:18 *711:A 0
18 *294:18 *712:B1 0
19 *294:18 *713:A 0
20 *294:18 *342:15 0
21 *294:18 *356:18 0
22 *294:18 *381:19 0
23 *294:18 *381:426 0
24 *706:B *294:18 0
25 *715:B1 *713:C 0
26 *288:20 *294:6 0
27 *288:20 *294:18 0
*RES
1 *711:X *294:6 10.2464 
2 *294:6 *294:18 16.625 
3 *294:18 *712:A2 9.3 
4 *294:18 *713:C 10.2464 
5 *294:6 *717:D 23.4875 
*END

*D_NET *295 0.000597772
*CONN
*I *715:A1 I *D sky130_fd_sc_hd__o21ai_0
*I *712:Y O *D sky130_fd_sc_hd__a21oi_1
*CAP
1 *715:A1 0.000298886
2 *712:Y 0.000298886
3 *715:A1 out[4] 0
4 *715:A1 out[8] 0
5 *715:A1 *715:A2 0
6 *715:A1 *381:13 0
7 *715:B1 *715:A1 0
8 *742:D *715:A1 0
*RES
1 *712:Y *715:A1 34.2161 
*END

*D_NET *296 0.00112862
*CONN
*I *716:B I *D sky130_fd_sc_hd__nand2b_1
*I *714:B I *D sky130_fd_sc_hd__nand2_1
*I *713:Y O *D sky130_fd_sc_hd__nand3_1
*CAP
1 *716:B 0.000250265
2 *714:B 0.000301854
3 *713:Y 1.21912e-05
4 *296:8 0.00056431
5 *714:B out[4] 0
6 *714:B *714:A 0
7 *714:B *743:RESET_B 0
8 *714:B *356:10 0
9 *716:B *713:A 0
10 *716:B *717:B 0
11 *716:B *717:C 0
12 *716:B *299:6 0
13 *716:B *299:10 0
14 *716:B *356:10 0
15 *716:B *356:14 0
16 *716:B *357:20 0
17 *716:B *357:24 0
18 *716:B *357:32 0
19 *716:B *381:13 0
20 *716:B *381:15 0
21 *716:B *381:19 0
22 *715:B1 *714:B 0
23 *715:B1 *296:8 0
24 *717:D *716:B 0
25 *743:D *714:B 0
*RES
1 *713:Y *296:8 14.0768 
2 *296:8 *714:B 20.5232 
3 *296:8 *716:B 19.492 
*END

*D_NET *297 0.000216473
*CONN
*I *715:A2 I *D sky130_fd_sc_hd__o21ai_0
*I *714:Y O *D sky130_fd_sc_hd__nand2_1
*CAP
1 *715:A2 0.000108237
2 *714:Y 0.000108237
3 *715:A2 *382:118 0
4 *715:A1 *715:A2 0
5 *715:B1 *715:A2 0
6 *742:D *715:A2 0
*RES
1 *714:Y *715:A2 20.7964 
*END

*D_NET *298 0.000427813
*CONN
*I *718:A2 I *D sky130_fd_sc_hd__a32o_1
*I *716:Y O *D sky130_fd_sc_hd__nand2b_1
*CAP
1 *718:A2 0.000213906
2 *716:Y 0.000213906
3 *718:A2 *718:A3 0
4 *718:A2 *718:B1 0
5 *718:A2 *718:B2 0
6 *718:A2 *719:B 0
7 *718:A2 *743:CLK 0
8 *718:A2 *299:10 0
*RES
1 *716:Y *718:A2 24.0107 
*END

*D_NET *299 0.00188069
*CONN
*I *718:A3 I *D sky130_fd_sc_hd__a32o_1
*I *720:B I *D sky130_fd_sc_hd__and2_0
*I *724:A3 I *D sky130_fd_sc_hd__o31a_1
*I *721:A2 I *D sky130_fd_sc_hd__o21ai_0
*I *723:A2 I *D sky130_fd_sc_hd__o21ai_0
*I *717:Y O *D sky130_fd_sc_hd__nand4_1
*CAP
1 *718:A3 8.06993e-05
2 *720:B 0
3 *724:A3 0.000177542
4 *721:A2 0
5 *723:A2 0.00011551
6 *717:Y 6.20329e-05
7 *299:38 0.000285948
8 *299:14 0.000271661
9 *299:10 0.00050456
10 *299:6 0.000382735
11 *718:A3 *718:B1 0
12 *718:A3 *719:B 0
13 *718:A3 *310:224 0
14 *718:A3 *345:11 0
15 *723:A2 *721:B1 0
16 *723:A2 *723:A1 0
17 *723:A2 *723:B1 0
18 *723:A2 *729:RESET_B 0
19 *724:A3 *718:B2 0
20 *724:A3 *719:B 0
21 *724:A3 *720:A 0
22 *724:A3 *722:A1 0
23 *724:A3 *722:B1 0
24 *724:A3 *724:A1 0
25 *724:A3 *724:B1 0
26 *724:A3 *743:CLK 0
27 *299:6 *718:B1 0
28 *299:6 *357:20 0
29 *299:10 *718:B1 0
30 *299:10 *718:B2 0
31 *299:10 *719:B 0
32 *299:10 *722:B1 0
33 *299:10 *342:15 0
34 *299:10 *357:20 0
35 *299:14 *722:B1 0
36 *299:14 *723:A1 0
37 *299:14 *729:RESET_B 0
38 *299:14 *342:15 0
39 *299:38 *720:A 0
40 *299:38 *722:B1 0
41 *299:38 *305:14 0
42 *299:38 *383:158 0
43 *716:B *299:6 0
44 *716:B *299:10 0
45 *718:A2 *718:A3 0
46 *718:A2 *299:10 0
47 *744:D *724:A3 0
*RES
1 *717:Y *299:6 10.6571 
2 *299:6 *299:10 5.07143 
3 *299:10 *299:14 3.32143 
4 *299:14 *723:A2 11.925 
5 *299:14 *721:A2 9.3 
6 *299:10 *299:38 11.4821 
7 *299:38 *724:A3 13.1571 
8 *299:38 *720:B 9.3 
9 *299:6 *718:A3 20.0679 
*END

*D_NET *300 0.000723356
*CONN
*I *722:B1 I *D sky130_fd_sc_hd__o21ai_0
*I *719:Y O *D sky130_fd_sc_hd__nand2_1
*CAP
1 *722:B1 0.000361678
2 *719:Y 0.000361678
3 *722:B1 *720:A 0
4 *722:B1 *722:A2 0
5 *722:B1 *723:A1 0
6 *722:B1 *725:B1 0
7 *722:B1 *743:CLK 0
8 *722:B1 *380:114 0
9 *722:B1 *380:127 0
10 *724:A3 *722:B1 0
11 *744:D *722:B1 0
12 *299:10 *722:B1 0
13 *299:14 *722:B1 0
14 *299:38 *722:B1 0
*RES
1 *719:Y *722:B1 35.4036 
*END

*D_NET *301 0.000366981
*CONN
*I *722:A1 I *D sky130_fd_sc_hd__o21ai_0
*I *720:X O *D sky130_fd_sc_hd__and2_0
*CAP
1 *722:A1 0.00018349
2 *720:X 0.00018349
3 *722:A1 *720:A 0
4 *722:A1 *725:B2 0
5 *722:A1 *743:CLK 0
6 *722:A1 *305:10 0
7 *722:A1 *357:12 0
8 *724:A3 *722:A1 0
*RES
1 *720:X *722:A1 31.6357 
*END

*D_NET *302 0.0004155
*CONN
*I *722:A2 I *D sky130_fd_sc_hd__o21ai_0
*I *721:Y O *D sky130_fd_sc_hd__o21ai_0
*CAP
1 *722:A2 0.00020775
2 *721:Y 0.00020775
3 *722:A2 *723:A1 0
4 *722:A2 *723:B1 0
5 *722:A2 *306:10 0
6 *722:A2 *380:114 0
7 *722:B1 *722:A2 0
8 *744:D *722:A2 0
*RES
1 *721:Y *722:A2 32.2071 
*END

*D_NET *303 0.000390904
*CONN
*I *725:B1 I *D sky130_fd_sc_hd__a22o_1
*I *723:Y O *D sky130_fd_sc_hd__o21ai_0
*CAP
1 *725:B1 0.000195452
2 *723:Y 0.000195452
3 *725:B1 *724:B1 0
4 *725:B1 *380:114 0
5 *725:B1 *380:127 0
6 *725:B1 *382:15 0
7 *725:B1 *382:19 0
8 *722:B1 *725:B1 0
*RES
1 *723:Y *725:B1 31.975 
*END

*D_NET *304 0.000543022
*CONN
*I *725:B2 I *D sky130_fd_sc_hd__a22o_1
*I *724:X O *D sky130_fd_sc_hd__o31a_1
*CAP
1 *725:B2 0.000271511
2 *724:X 0.000271511
3 *725:B2 *720:A 0
4 *725:B2 *743:CLK 0
5 *725:B2 *305:10 0
6 *725:B2 *357:12 0
7 *725:B2 *385:6 0
8 *722:A1 *725:B2 0
*RES
1 *724:X *725:B2 33.3857 
*END

*D_NET *305 0.00147223
*CONN
*I *724:A1 I *D sky130_fd_sc_hd__o31a_1
*I *720:A I *D sky130_fd_sc_hd__and2_0
*I *723:A1 I *D sky130_fd_sc_hd__o21ai_0
*I *721:A1 I *D sky130_fd_sc_hd__o21ai_0
*I *386:Y O *D sky130_fd_sc_hd__clkinv_1
*CAP
1 *724:A1 4.32091e-05
2 *720:A 0.000124066
3 *723:A1 0.000136045
4 *721:A1 0
5 *386:Y 0.000320321
6 *305:36 0.000167275
7 *305:14 0.000248518
8 *305:10 0.000432794
9 *720:A *743:CLK 0
10 *723:A1 *723:B1 0
11 *305:10 *386:A 0
12 *305:10 *723:B1 0
13 *305:10 *306:10 0
14 *305:10 *385:6 0
15 *305:14 *721:B1 0
16 *305:14 *723:B1 0
17 *305:14 *383:158 0
18 *722:A1 *720:A 0
19 *722:A1 *305:10 0
20 *722:A2 *723:A1 0
21 *722:B1 *720:A 0
22 *722:B1 *723:A1 0
23 *723:A2 *723:A1 0
24 *724:A3 *720:A 0
25 *724:A3 *724:A1 0
26 *725:B2 *720:A 0
27 *725:B2 *305:10 0
28 *744:D *724:A1 0
29 *299:14 *723:A1 0
30 *299:38 *720:A 0
31 *299:38 *305:14 0
*RES
1 *386:Y *305:10 20.8714 
2 *305:10 *305:14 7.05357 
3 *305:14 *721:A1 9.3 
4 *305:14 *723:A1 12.4786 
5 *305:10 *305:36 4.5 
6 *305:36 *720:A 11.8893 
7 *305:36 *724:A1 10.2643 
*END

*D_NET *306 0.000834439
*CONN
*I *724:A2 I *D sky130_fd_sc_hd__o31a_1
*I *723:B1 I *D sky130_fd_sc_hd__o21ai_0
*I *387:Y O *D sky130_fd_sc_hd__clkinv_1
*CAP
1 *724:A2 2.41714e-05
2 *723:B1 0.000289966
3 *387:Y 0.000103082
4 *306:10 0.00041722
5 *723:B1 *354:30 0
6 *723:B1 *380:114 0
7 *722:A2 *723:B1 0
8 *722:A2 *306:10 0
9 *723:A1 *723:B1 0
10 *723:A2 *723:B1 0
11 *289:20 *723:B1 0
12 *305:10 *723:B1 0
13 *305:10 *306:10 0
14 *305:14 *723:B1 0
*RES
1 *387:Y *306:10 16.0857 
2 *306:10 *723:B1 24.5726 
3 *306:10 *724:A2 14.3357 
*END

*D_NET *307 0.00163008
*CONN
*I *402:B I *D sky130_fd_sc_hd__maj3_1
*I *398:A I *D sky130_fd_sc_hd__xnor2_1
*I *389:B I *D sky130_fd_sc_hd__nand2_1
*I *388:X O *D sky130_fd_sc_hd__and3_1
*CAP
1 *402:B 0.000161927
2 *398:A 1.75403e-05
3 *389:B 0.000226313
4 *388:X 0.000277406
5 *307:31 0.000311322
6 *307:10 0.000635574
7 *389:B *389:A 0
8 *389:B *392:A1 0
9 *389:B *401:A1 0
10 *389:B *401:B1 0
11 *389:B *382:54 0
12 *398:A *398:B 0
13 *402:B *398:B 0
14 *402:B *400:B1 0
15 *402:B *401:B1 0
16 *402:B *381:95 0
17 *307:10 *390:A1 0
18 *307:10 *395:B2 0
19 *307:10 *397:B 0
20 *307:10 *408:B 0
21 *307:10 *314:10 0
22 *307:10 *341:161 0
23 *307:10 *345:17 0
24 *307:10 *381:66 0
25 *307:31 *398:B 0
26 *307:31 *401:B1 0
27 *307:31 *345:11 0
28 *307:31 *345:17 0
29 *307:31 *381:66 0
*RES
1 *388:X *307:10 19.9429 
2 *307:10 *389:B 18.4607 
3 *307:10 *307:31 7.53571 
4 *307:31 *398:A 9.72857 
5 *307:31 *402:B 12.7107 
*END

*D_NET *308 0.000712248
*CONN
*I *392:A1 I *D sky130_fd_sc_hd__a32o_1
*I *389:Y O *D sky130_fd_sc_hd__nand2_1
*CAP
1 *392:A1 0.000356124
2 *389:Y 0.000356124
3 *392:A1 *392:A2 0
4 *392:A1 *392:B2 0
5 *392:A1 *310:79 0
6 *392:A1 *382:54 0
7 *392:A1 *383:56 0
8 *389:B *392:A1 0
*RES
1 *389:Y *392:A1 35.3857 
*END

*D_NET *309 0.000695696
*CONN
*I *392:A2 I *D sky130_fd_sc_hd__a32o_1
*I *390:X O *D sky130_fd_sc_hd__a31o_1
*CAP
1 *392:A2 0.000347848
2 *390:X 0.000347848
3 *392:A2 *388:A 0
4 *392:A2 *390:A2 0
5 *392:A2 *392:B1 0
6 *392:A2 *392:B2 0
7 *392:A2 *310:79 0
8 *392:A2 *310:81 0
9 *392:A2 *349:29 0
10 *392:A2 *382:54 0
11 *392:A1 *392:A2 0
*RES
1 *390:X *392:A2 35.0464 
*END

*D_NET *310 0.0181527
*CONN
*I *701:B1 I *D sky130_fd_sc_hd__o21ai_0
*I *688:B1 I *D sky130_fd_sc_hd__o21ai_0
*I *724:B1 I *D sky130_fd_sc_hd__o31a_1
*I *721:B1 I *D sky130_fd_sc_hd__o21ai_0
*I *411:B1 I *D sky130_fd_sc_hd__o21ai_0
*I *399:B1 I *D sky130_fd_sc_hd__o21ai_0
*I *714:A I *D sky130_fd_sc_hd__nand2_1
*I *718:A1 I *D sky130_fd_sc_hd__a32o_1
*I *426:B1 I *D sky130_fd_sc_hd__o21ai_0
*I *707:B1 I *D sky130_fd_sc_hd__o21ai_0
*I *392:A3 I *D sky130_fd_sc_hd__a32o_1
*I *470:B1 I *D sky130_fd_sc_hd__o21ai_0
*I *447:B1 I *D sky130_fd_sc_hd__o21ai_0
*I *497:B1 I *D sky130_fd_sc_hd__o21ai_0
*I *526:B1 I *D sky130_fd_sc_hd__o21ai_0
*I *592:B1 I *D sky130_fd_sc_hd__o21ai_0
*I *561:B1 I *D sky130_fd_sc_hd__o21ai_0
*I *671:B1 I *D sky130_fd_sc_hd__o21ai_0
*I *649:B1 I *D sky130_fd_sc_hd__o21ai_0
*I *622:B1 I *D sky130_fd_sc_hd__o21ai_0
*I *391:Y O *D sky130_fd_sc_hd__nor2_1
*CAP
1 *701:B1 2.56688e-05
2 *688:B1 6.73548e-05
3 *724:B1 0.000126826
4 *721:B1 9.13323e-05
5 *411:B1 5.60435e-05
6 *399:B1 9.67459e-05
7 *714:A 0.000482761
8 *718:A1 0
9 *426:B1 0.000152586
10 *707:B1 0.00039497
11 *392:A3 9.34771e-05
12 *470:B1 2.35958e-05
13 *447:B1 0.00042724
14 *497:B1 0.000173768
15 *526:B1 0.000124066
16 *592:B1 0.000403787
17 *561:B1 0
18 *671:B1 0
19 *649:B1 0
20 *622:B1 0.000492154
21 *391:Y 0.000429551
22 *310:276 0.000731328
23 *310:224 0.00102572
24 *310:159 0.000671654
25 *310:140 0.000810848
26 *310:97 0.000837714
27 *310:85 0.000799634
28 *310:81 0.000780955
29 *310:79 0.000714008
30 *310:77 0.00121331
31 *310:73 0.000657406
32 *310:67 0.000847991
33 *310:65 0.000394932
34 *310:63 0.000377759
35 *310:59 0.00117414
36 *310:22 0.000831934
37 *310:18 0.000701386
38 *310:14 0.000919663
39 *310:12 0.000327106
40 *310:10 0.000673285
41 *392:A3 *392:B2 0
42 *392:A3 *423:A 0
43 *392:A3 *726:RESET_B 0
44 *392:A3 *324:10 0
45 *392:A3 *382:54 0
46 *392:A3 *382:64 0
47 *399:B1 *399:A2 0
48 *399:B1 *409:B 0
49 *399:B1 *428:A2 0
50 *399:B1 *380:10 0
51 *399:B1 *382:46 0
52 *411:B1 *412:B1 0
53 *411:B1 *748:A 0
54 *411:B1 *381:349 0
55 *426:B1 *330:14 0
56 *426:B1 *357:32 0
57 *426:B1 *373:19 0
58 *426:B1 *383:122 0
59 *447:B1 *447:A1 0
60 *447:B1 *472:A1 0
61 *447:B1 *730:RESET_B 0
62 *447:B1 *363:10 0
63 *447:B1 *381:195 0
64 *447:B1 *381:223 0
65 *447:B1 *382:85 0
66 *470:B1 *381:223 0
67 *497:B1 *497:A2 0
68 *497:B1 *733:CLK 0
69 *497:B1 *363:12 0
70 *497:B1 *381:174 0
71 *526:B1 *529:A 0
72 *526:B1 *365:55 0
73 *526:B1 *381:155 0
74 *592:B1 out[12] 0
75 *592:B1 *594:A2 0
76 *592:B1 *345:17 0
77 *592:B1 *365:79 0
78 *622:B1 out[12] 0
79 *622:B1 *350:10 0
80 *622:B1 *350:41 0
81 *622:B1 *350:56 0
82 *622:B1 *351:14 0
83 *622:B1 *351:21 0
84 *622:B1 *381:107 0
85 *622:B1 *383:21 0
86 *688:B1 *688:A2 0
87 *688:B1 *353:28 0
88 *701:B1 *701:A2 0
89 *707:B1 out[8] 0
90 *707:B1 *707:A2 0
91 *707:B1 *355:16 0
92 *707:B1 *355:45 0
93 *707:B1 *361:28 0
94 *707:B1 *361:36 0
95 *707:B1 *381:21 0
96 *714:A out[19] 0
97 *714:A out[4] 0
98 *714:A *743:CLK 0
99 *714:A *743:RESET_B 0
100 *714:A *345:11 0
101 *714:A *357:12 0
102 *714:A *357:20 0
103 *721:B1 *740:CLK 0
104 *721:B1 *380:103 0
105 *721:B1 *380:114 0
106 *724:B1 *744:CLK 0
107 *724:B1 *744:RESET_B 0
108 *724:B1 *380:114 0
109 *724:B1 *382:19 0
110 *310:10 out[18] 0
111 *310:10 *391:B 0
112 *310:10 *703:A2 0
113 *310:10 *745:RESET_B 0
114 *310:10 *354:10 0
115 *310:10 *383:282 0
116 *310:12 *703:A2 0
117 *310:12 *381:359 0
118 *310:12 *381:379 0
119 *310:18 *669:A 0
120 *310:18 *671:A1 0
121 *310:18 *352:8 0
122 *310:18 *352:10 0
123 *310:18 *383:243 0
124 *310:18 *383:254 0
125 *310:22 out[12] 0
126 *310:22 *647:A 0
127 *310:22 *669:A 0
128 *310:22 *673:A2 0
129 *310:22 *381:99 0
130 *310:59 *412:B1 0
131 *310:59 *739:CLK 0
132 *310:59 *360:16 0
133 *310:59 *360:64 0
134 *310:59 *377:9 0
135 *310:59 *381:349 0
136 *310:63 *412:B1 0
137 *310:63 *330:14 0
138 *310:63 *360:16 0
139 *310:63 *360:18 0
140 *310:65 *748:A 0
141 *310:65 *330:14 0
142 *310:65 *380:10 0
143 *310:65 *381:338 0
144 *310:67 *748:A 0
145 *310:67 *330:14 0
146 *310:73 *747:A 0
147 *310:73 *748:A 0
148 *310:73 *330:14 0
149 *310:77 *747:A 0
150 *310:77 *330:14 0
151 *310:77 *383:79 0
152 *310:79 out[8] 0
153 *310:79 *429:B 0
154 *310:79 *361:36 0
155 *310:79 *383:56 0
156 *310:79 *383:71 0
157 *310:81 out[8] 0
158 *310:81 *392:B2 0
159 *310:81 *383:45 0
160 *310:85 out[8] 0
161 *310:85 *365:10 0
162 *310:85 *382:64 0
163 *310:85 *383:45 0
164 *310:97 out[12] 0
165 *310:97 *365:79 0
166 *310:97 *381:153 0
167 *310:140 *422:A 0
168 *310:140 *423:B 0
169 *310:140 *497:A2 0
170 *310:140 *734:CLK 0
171 *310:140 *379:22 0
172 *310:159 *470:A1 0
173 *310:159 *363:10 0
174 *310:159 *363:12 0
175 *310:159 *381:195 0
176 *310:224 *729:RESET_B 0
177 *310:224 *345:11 0
178 *310:224 *357:20 0
179 *310:224 *381:56 0
180 *310:224 *381:58 0
181 *310:224 *382:46 0
182 *310:224 *383:158 0
183 *310:276 *411:A1 0
184 *310:276 *412:A2 0
185 *310:276 *728:RESET_B 0
186 *310:276 *342:17 0
187 *310:276 *359:72 0
188 *310:276 *380:42 0
189 *310:276 *380:103 0
190 *310:276 *380:114 0
191 *310:276 *382:19 0
192 *392:A1 *310:79 0
193 *392:A2 *310:79 0
194 *392:A2 *310:81 0
195 *427:A2 *426:B1 0
196 *471:A2 *310:159 0
197 *472:B1 *447:B1 0
198 *527:A2 *526:B1 0
199 *527:A2 *310:85 0
200 *527:A2 *310:97 0
201 *528:B1 *526:B1 0
202 *594:B1 *592:B1 0
203 *651:B1 *622:B1 0
204 *690:B1 *310:18 0
205 *702:A2 *310:12 0
206 *703:B1 *701:B1 0
207 *706:C *707:B1 0
208 *714:B *714:A 0
209 *718:A3 *310:224 0
210 *723:A2 *721:B1 0
211 *724:A3 *724:B1 0
212 *725:B1 *724:B1 0
213 *726:D *392:A3 0
214 *731:D *447:B1 0
215 *734:D *310:85 0
216 *735:D *592:B1 0
217 *739:D *310:59 0
218 *239:12 *310:22 0
219 *305:14 *721:B1 0
*RES
1 *391:Y *310:10 23.5679 
2 *310:10 *310:12 4.98214 
3 *310:12 *310:14 0.946428 
4 *310:14 *310:18 8.05357 
5 *310:18 *310:22 12.2143 
6 *310:22 *622:B1 28.7286 
7 *310:22 *649:B1 9.3 
8 *310:18 *671:B1 13.8 
9 *310:14 *310:59 15.3393 
10 *310:59 *310:63 3.01786 
11 *310:63 *310:65 3.82143 
12 *310:65 *310:67 2.58929 
13 *310:67 *310:73 3.96429 
14 *310:73 *310:77 11.1964 
15 *310:77 *310:79 11.3571 
16 *310:79 *310:81 2.85714 
17 *310:81 *310:85 5.51786 
18 *310:85 *310:97 13.3619 
19 *310:97 *561:B1 9.3 
20 *310:97 *592:B1 29.6562 
21 *310:85 *526:B1 16.3893 
22 *310:81 *310:140 13.25 
23 *310:140 *497:B1 22.1125 
24 *310:140 *310:159 9.48214 
25 *310:159 *447:B1 32.4071 
26 *310:159 *470:B1 14.3357 
27 *310:79 *392:A3 15.8134 
28 *310:77 *707:B1 22.3179 
29 *310:73 *426:B1 21.7643 
30 *310:67 *310:224 16.7679 
31 *310:224 *718:A1 13.8 
32 *310:224 *714:A 24.3 
33 *310:65 *399:B1 20.4518 
34 *310:63 *411:B1 10.675 
35 *310:59 *310:276 16.2143 
36 *310:276 *721:B1 25.0143 
37 *310:276 *724:B1 16.8179 
38 *310:12 *688:B1 15.2821 
39 *310:10 *701:B1 14.3357 
*END

*D_NET *311 0.00054366
*CONN
*I *406:A I *D sky130_fd_sc_hd__xnor3_1
*I *416:A I *D sky130_fd_sc_hd__maj3_1
*I *393:Y O *D sky130_fd_sc_hd__nand2_1
*CAP
1 *406:A 0.000108406
2 *416:A 0.000163425
3 *393:Y 0
4 *311:4 0.00027183
5 *406:A out[10] 0
6 *406:A *393:A 0
7 *406:A *406:B 0
8 *406:A *341:42 0
9 *416:A *393:A 0
10 *416:A *406:B 0
11 *416:A *416:C 0
12 *416:A *342:104 0
*RES
1 *393:Y *311:4 9.3 
2 *311:4 *416:A 12.7107 
3 *311:4 *406:A 20.7821 
*END

*D_NET *312 0.000955588
*CONN
*I *408:A I *D sky130_fd_sc_hd__xnor2_1
*I *396:A I *D sky130_fd_sc_hd__lpflow_isobufsrc_1
*I *407:A_N I *D sky130_fd_sc_hd__nand2b_1
*I *394:Y O *D sky130_fd_sc_hd__nand4_1
*CAP
1 *408:A 0
2 *396:A 0.000167275
3 *407:A_N 0.000162141
4 *394:Y 0
5 *312:25 0.000315653
6 *312:4 0.000310519
7 *396:A *390:A1 0
8 *396:A *395:B2 0
9 *396:A *396:SLEEP 0
10 *396:A *402:C 0
11 *396:A *314:10 0
12 *396:A *341:161 0
13 *396:A *381:88 0
14 *396:A *381:95 0
15 *407:A_N *394:B 0
16 *407:A_N *394:C 0
17 *407:A_N *394:D 0
18 *407:A_N *735:CLK 0
19 *407:A_N *324:10 0
20 *407:A_N *341:161 0
21 *407:A_N *368:99 0
22 *312:25 *395:B2 0
23 *312:25 *396:SLEEP 0
24 *312:25 *342:19 0
*RES
1 *394:Y *312:4 9.3 
2 *312:4 *407:A_N 12.7464 
3 *312:4 *312:25 12.3214 
4 *312:25 *396:A 12.8536 
5 *312:25 *408:A 9.3 
*END

*D_NET *313 0.000475728
*CONN
*I *396:SLEEP I *D sky130_fd_sc_hd__lpflow_isobufsrc_1
*I *395:Y O *D sky130_fd_sc_hd__a22oi_1
*CAP
1 *396:SLEEP 0.000237864
2 *395:Y 0.000237864
3 *396:SLEEP *390:A1 0
4 *396:SLEEP *390:B1 0
5 *396:SLEEP *395:B2 0
6 *396:SLEEP *341:161 0
7 *396:A *396:SLEEP 0
8 *312:25 *396:SLEEP 0
*RES
1 *395:Y *396:SLEEP 23.5643 
*END

*D_NET *314 0.000762569
*CONN
*I *397:B I *D sky130_fd_sc_hd__xor2_1
*I *402:C I *D sky130_fd_sc_hd__maj3_1
*I *396:X O *D sky130_fd_sc_hd__lpflow_isobufsrc_1
*CAP
1 *397:B 7.00061e-05
2 *402:C 0.000229494
3 *396:X 8.17846e-05
4 *314:10 0.000381285
5 *397:B *397:A 0
6 *397:B *400:A2 0
7 *397:B *400:B1 0
8 *397:B *381:66 0
9 *397:B *381:95 0
10 *402:C *395:B2 0
11 *402:C *397:A 0
12 *402:C *400:B1 0
13 *402:C *342:17 0
14 *402:C *381:95 0
15 *314:10 *395:B2 0
16 *314:10 *342:17 0
17 *314:10 *381:95 0
18 *396:A *402:C 0
19 *396:A *314:10 0
20 *307:10 *397:B 0
21 *307:10 *314:10 0
*RES
1 *396:X *314:10 15.675 
2 *314:10 *402:C 28.0321 
3 *314:10 *397:B 15.4964 
*END

*D_NET *315 0.000886428
*CONN
*I *398:B I *D sky130_fd_sc_hd__xnor2_1
*I *397:X O *D sky130_fd_sc_hd__xor2_1
*CAP
1 *398:B 0.000443214
2 *397:X 0.000443214
3 *398:B *399:A2 0
4 *398:B *400:B1 0
5 *398:B *401:A1 0
6 *398:B *401:B1 0
7 *398:B *410:A 0
8 *398:B *359:8 0
9 *398:B *359:17 0
10 *398:B *359:55 0
11 *398:B *381:95 0
12 *398:B *382:46 0
13 *398:A *398:B 0
14 *402:B *398:B 0
15 *307:31 *398:B 0
*RES
1 *397:X *398:B 28.2429 
*END

*D_NET *316 0.000250902
*CONN
*I *400:A2 I *D sky130_fd_sc_hd__a21oi_1
*I *398:Y O *D sky130_fd_sc_hd__xnor2_1
*CAP
1 *400:A2 0.000125451
2 *398:Y 0.000125451
3 *400:A2 *397:A 0
4 *400:A2 *381:66 0
5 *397:B *400:A2 0
*RES
1 *398:Y *400:A2 30.5107 
*END

*D_NET *317 0.000636672
*CONN
*I *400:B1 I *D sky130_fd_sc_hd__a21oi_1
*I *399:Y O *D sky130_fd_sc_hd__o21ai_0
*CAP
1 *400:B1 0.000318336
2 *399:Y 0.000318336
3 *400:B1 *397:A 0
4 *400:B1 *401:B1 0
5 *400:B1 *414:B 0
6 *400:B1 *342:17 0
7 *400:B1 *359:21 0
8 *400:B1 *381:88 0
9 *400:B1 *381:95 0
10 *397:B *400:B1 0
11 *398:B *400:B1 0
12 *402:B *400:B1 0
13 *402:C *400:B1 0
*RES
1 *399:Y *400:B1 34.5286 
*END

*D_NET *318 0.00064942
*CONN
*I *401:B1 I *D sky130_fd_sc_hd__a21o_1
*I *400:Y O *D sky130_fd_sc_hd__a21oi_1
*CAP
1 *401:B1 0.00032471
2 *400:Y 0.00032471
3 *401:B1 *401:A1 0
4 *401:B1 *381:88 0
5 *401:B1 *382:46 0
6 *389:B *401:B1 0
7 *398:B *401:B1 0
8 *400:B1 *401:B1 0
9 *402:B *401:B1 0
10 *307:31 *401:B1 0
*RES
1 *400:Y *401:B1 25.4393 
*END

*D_NET *319 0.000384296
*CONN
*I *414:B I *D sky130_fd_sc_hd__maj3_1
*I *410:A I *D sky130_fd_sc_hd__xnor2_1
*I *402:X O *D sky130_fd_sc_hd__maj3_1
*CAP
1 *414:B 7.23606e-05
2 *410:A 0.000119788
3 *402:X 0
4 *319:4 0.000192148
5 *410:A *359:55 0
6 *410:A *381:95 0
7 *414:B *342:17 0
8 *414:B *359:21 0
9 *398:B *410:A 0
10 *400:B1 *414:B 0
*RES
1 *402:X *319:4 9.3 
2 *319:4 *410:A 11.8 
3 *319:4 *414:B 19.9429 
*END

*D_NET *320 0.000740792
*CONN
*I *406:B I *D sky130_fd_sc_hd__xnor3_1
*I *416:B I *D sky130_fd_sc_hd__maj3_1
*I *403:Y O *D sky130_fd_sc_hd__nand2_1
*CAP
1 *406:B 0.000224266
2 *416:B 2.56688e-05
3 *403:Y 0.000120462
4 *320:10 0.000370396
5 *406:B *342:25 0
6 *406:B *369:21 0
7 *416:B *416:C 0
8 *416:B *342:104 0
9 *320:10 *405:A 0
10 *320:10 *332:14 0
11 *320:10 *342:25 0
12 *320:10 *342:31 0
13 *320:10 *369:23 0
14 *406:A *406:B 0
15 *416:A *406:B 0
16 *555:A *406:B 0
17 *146:16 *406:B 0
*RES
1 *403:Y *320:10 16.3893 
2 *320:10 *416:B 14.3357 
3 *320:10 *406:B 18.6571 
*END

*D_NET *321 0.000570185
*CONN
*I *406:C I *D sky130_fd_sc_hd__xnor3_1
*I *416:C I *D sky130_fd_sc_hd__maj3_1
*I *404:Y O *D sky130_fd_sc_hd__nand2_1
*CAP
1 *406:C 8.57316e-05
2 *416:C 0.000176687
3 *404:Y 2.26741e-05
4 *321:6 0.000285092
5 *406:C *342:25 0
6 *406:C *368:80 0
7 *416:C *393:A 0
8 *416:C *393:B 0
9 *416:C *404:A 0
10 *416:C *332:14 0
11 *416:C *342:104 0
12 *321:6 *404:A 0
13 *416:A *416:C 0
14 *416:B *416:C 0
*RES
1 *404:Y *321:6 9.83571 
2 *321:6 *416:C 13.05 
3 *321:6 *406:C 20.2464 
*END

*D_NET *322 0.000628367
*CONN
*I *420:A I *D sky130_fd_sc_hd__xnor3_1
*I *431:A I *D sky130_fd_sc_hd__maj3_1
*I *405:X O *D sky130_fd_sc_hd__and2_0
*CAP
1 *420:A 0
2 *431:A 0.000170439
3 *405:X 0.000143745
4 *322:6 0.000314184
5 *431:A *420:C 0
6 *431:A *431:B 0
7 *431:A *431:C 0
8 *431:A *345:17 0
9 *322:6 *405:A 0
10 *322:6 *405:B 0
11 *322:6 *332:14 0
12 *322:6 *333:10 0
13 *26:12 *431:A 0
*RES
1 *405:X *322:6 12.3 
2 *322:6 *431:A 22.0143 
3 *322:6 *420:A 9.3 
*END

*D_NET *323 0.00172385
*CONN
*I *408:B I *D sky130_fd_sc_hd__xnor2_1
*I *407:B I *D sky130_fd_sc_hd__nand2b_1
*I *406:X O *D sky130_fd_sc_hd__xnor3_1
*CAP
1 *408:B 0.000135389
2 *407:B 1.24066e-05
3 *406:X 0.000714128
4 *323:8 0.000861924
5 *408:B *395:B2 0
6 *408:B *345:17 0
7 *323:8 *735:CLK 0
8 *323:8 *345:17 0
9 *323:8 *368:80 0
10 *557:A2 *323:8 0
11 *735:D *323:8 0
12 *307:10 *408:B 0
*RES
1 *406:X *323:8 30.0143 
2 *323:8 *407:B 14.0589 
3 *323:8 *408:B 16.8893 
*END

*D_NET *324 0.00210398
*CONN
*I *423:A I *D sky130_fd_sc_hd__xor2_1
*I *422:A I *D sky130_fd_sc_hd__nor2_1
*I *407:Y O *D sky130_fd_sc_hd__nand2b_1
*CAP
1 *423:A 0.000163628
2 *422:A 0.000205147
3 *407:Y 0.000683217
4 *324:10 0.00105199
5 *422:A *423:B 0
6 *423:A *726:CLK 0
7 *423:A *339:10 0
8 *423:A *382:64 0
9 *324:10 *388:A 0
10 *324:10 *388:C 0
11 *324:10 *392:B1 0
12 *324:10 *394:D 0
13 *324:10 *735:CLK 0
14 *324:10 *366:6 0
15 *324:10 *366:10 0
16 *324:10 *368:99 0
17 *392:A3 *423:A 0
18 *392:A3 *324:10 0
19 *407:A_N *324:10 0
20 *726:D *423:A 0
21 *310:140 *422:A 0
*RES
1 *407:Y *324:10 23.6214 
2 *324:10 *422:A 13.8536 
3 *324:10 *423:A 13.9429 
*END

*D_NET *325 0.000876122
*CONN
*I *409:B I *D sky130_fd_sc_hd__xor2_1
*I *414:C I *D sky130_fd_sc_hd__maj3_1
*I *408:Y O *D sky130_fd_sc_hd__xnor2_1
*CAP
1 *409:B 0.000119788
2 *414:C 0
3 *408:Y 0.000318273
4 *325:12 0.000438061
5 *409:B *409:A 0
6 *409:B *359:55 0
7 *409:B *360:18 0
8 *409:B *360:20 0
9 *325:12 *395:B1 0
10 *325:12 *395:B2 0
11 *325:12 *412:A2 0
12 *325:12 *341:161 0
13 *325:12 *342:17 0
14 *325:12 *381:95 0
15 *399:B1 *409:B 0
*RES
1 *408:Y *325:12 25.4429 
2 *325:12 *414:C 9.3 
3 *325:12 *409:B 11.8 
*END

*D_NET *326 0.000598938
*CONN
*I *410:B I *D sky130_fd_sc_hd__xnor2_1
*I *409:X O *D sky130_fd_sc_hd__xor2_1
*CAP
1 *410:B 0.000299469
2 *409:X 0.000299469
3 *410:B *412:A2 0
4 *410:B *359:55 0
5 *410:B *381:95 0
*RES
1 *409:X *410:B 25.1179 
*END

*D_NET *327 0.000979232
*CONN
*I *412:A2 I *D sky130_fd_sc_hd__a21oi_1
*I *410:Y O *D sky130_fd_sc_hd__xnor2_1
*CAP
1 *412:A2 0.000489616
2 *410:Y 0.000489616
3 *412:A2 out[3] 0
4 *412:A2 *411:A1 0
5 *412:A2 *413:A1 0
6 *412:A2 *413:B1 0
7 *412:A2 *342:17 0
8 *412:A2 *359:55 0
9 *412:A2 *359:72 0
10 *412:A2 *380:46 0
11 *410:B *412:A2 0
12 *310:276 *412:A2 0
13 *325:12 *412:A2 0
*RES
1 *410:Y *412:A2 38.3679 
*END

*D_NET *328 0.00061634
*CONN
*I *412:B1 I *D sky130_fd_sc_hd__a21oi_1
*I *411:Y O *D sky130_fd_sc_hd__o21ai_0
*CAP
1 *412:B1 0.00030817
2 *411:Y 0.00030817
3 *412:B1 *412:A1 0
4 *412:B1 *359:55 0
5 *412:B1 *359:72 0
6 *412:B1 *381:349 0
7 *411:B1 *412:B1 0
8 *310:59 *412:B1 0
9 *310:63 *412:B1 0
*RES
1 *411:Y *412:B1 34.1179 
*END

*D_NET *329 0.000239575
*CONN
*I *413:B1 I *D sky130_fd_sc_hd__a21o_1
*I *412:Y O *D sky130_fd_sc_hd__a21oi_1
*CAP
1 *413:B1 0.000119788
2 *412:Y 0.000119788
3 *413:B1 out[3] 0
4 *413:B1 *377:9 0
5 *412:A2 *413:B1 0
*RES
1 *412:Y *413:B1 21.1 
*END

*D_NET *330 0.00228264
*CONN
*I *429:B I *D sky130_fd_sc_hd__maj3_1
*I *425:A I *D sky130_fd_sc_hd__xnor2_1
*I *414:X O *D sky130_fd_sc_hd__maj3_1
*CAP
1 *429:B 0.000424567
2 *425:A 2.56688e-05
3 *414:X 0.000691087
4 *330:14 0.00114132
5 *425:A *747:A 0
6 *425:A *373:19 0
7 *429:B *429:C 0
8 *429:B *727:CLK 0
9 *429:B *361:36 0
10 *429:B *383:71 0
11 *429:B *383:79 0
12 *429:B *383:122 0
13 *330:14 *399:A2 0
14 *330:14 *747:A 0
15 *330:14 *357:32 0
16 *330:14 *359:17 0
17 *330:14 *359:55 0
18 *330:14 *360:18 0
19 *330:14 *360:20 0
20 *330:14 *373:19 0
21 *330:14 *377:9 0
22 *330:14 *380:10 0
23 *330:14 *381:45 0
24 *330:14 *382:46 0
25 *426:B1 *330:14 0
26 *727:D *429:B 0
27 *24:10 *429:B 0
28 *310:63 *330:14 0
29 *310:65 *330:14 0
30 *310:67 *330:14 0
31 *310:73 *330:14 0
32 *310:77 *330:14 0
33 *310:79 *429:B 0
*RES
1 *414:X *330:14 32.8179 
2 *330:14 *425:A 9.83571 
3 *330:14 *429:B 27.4786 
*END

*D_NET *331 0.00163884
*CONN
*I *421:A I *D sky130_fd_sc_hd__xor3_1
*I *437:A I *D sky130_fd_sc_hd__nor2_1
*I *430:A I *D sky130_fd_sc_hd__maj3_1
*I *415:Y O *D sky130_fd_sc_hd__nand2_1
*CAP
1 *421:A 0.000252182
2 *437:A 0.00030242
3 *430:A 0.000163425
4 *415:Y 0
5 *331:15 0.000655994
6 *331:4 0.000264816
7 *421:A *415:A 0
8 *421:A *415:B 0
9 *421:A *332:14 0
10 *421:A *373:19 0
11 *430:A *421:C 0
12 *430:A *430:B 0
13 *430:A *336:12 0
14 *437:A *415:B 0
15 *437:A *371:51 0
16 *437:A *373:19 0
17 *437:A *373:21 0
18 *331:15 *415:A 0
19 *331:15 *336:12 0
20 *492:A *430:A 0
21 *492:B *430:A 0
22 *492:B *331:15 0
23 *26:12 *430:A 0
24 *83:14 *437:A 0
25 *83:14 *331:15 0
26 *85:12 *421:A 0
*RES
1 *415:Y *331:4 9.3 
2 *331:4 *430:A 12.7107 
3 *331:4 *331:15 6.67857 
4 *331:15 *437:A 20.6036 
5 *331:15 *421:A 19.3893 
*END

*D_NET *332 0.0021197
*CONN
*I *421:B I *D sky130_fd_sc_hd__xor3_1
*I *430:B I *D sky130_fd_sc_hd__maj3_1
*I *416:X O *D sky130_fd_sc_hd__maj3_1
*CAP
1 *421:B 0
2 *430:B 0.000270107
3 *416:X 0.000789743
4 *332:14 0.00105985
5 *430:B *415:B 0
6 *430:B *421:C 0
7 *430:B *336:12 0
8 *332:14 *404:A 0
9 *332:14 *405:A 0
10 *332:14 *415:A 0
11 *332:14 *415:B 0
12 *332:14 *418:B 0
13 *332:14 *420:C 0
14 *332:14 *341:57 0
15 *332:14 *342:104 0
16 *416:C *332:14 0
17 *421:A *332:14 0
18 *430:A *430:B 0
19 *520:B *332:14 0
20 *25:6 *430:B 0
21 *85:12 *430:B 0
22 *85:12 *332:14 0
23 *110:14 *332:14 0
24 *112:10 *332:14 0
25 *320:10 *332:14 0
26 *322:6 *332:14 0
*RES
1 *416:X *332:14 26.0321 
2 *332:14 *430:B 24.1929 
3 *332:14 *421:B 9.3 
*END

*D_NET *333 0.000876078
*CONN
*I *420:B I *D sky130_fd_sc_hd__xnor3_1
*I *431:B I *D sky130_fd_sc_hd__maj3_1
*I *417:X O *D sky130_fd_sc_hd__and2_0
*CAP
1 *420:B 0
2 *431:B 0.000138142
3 *417:X 0.000299897
4 *333:10 0.000438039
5 *431:B *418:A 0
6 *431:B *345:17 0
7 *333:10 *405:A 0
8 *333:10 *420:C 0
9 *333:10 *431:C 0
10 *333:10 *342:31 0
11 *431:A *431:B 0
12 *26:12 *431:B 0
13 *322:6 *333:10 0
*RES
1 *417:X *333:10 15.6214 
2 *333:10 *431:B 21.3893 
3 *333:10 *420:B 9.3 
*END

*D_NET *334 0.00118955
*CONN
*I *431:C I *D sky130_fd_sc_hd__maj3_1
*I *420:C I *D sky130_fd_sc_hd__xnor3_1
*I *418:X O *D sky130_fd_sc_hd__and2_0
*CAP
1 *431:C 0.000153964
2 *420:C 0.000290979
3 *418:X 0.000149834
4 *334:8 0.000594777
5 *420:C *415:A 0
6 *420:C *336:12 0
7 *431:C *418:A 0
8 *334:8 *418:A 0
9 *334:8 *345:17 0
10 *334:8 *368:80 0
11 *431:A *420:C 0
12 *431:A *431:C 0
13 *26:12 *420:C 0
14 *26:12 *431:C 0
15 *332:14 *420:C 0
16 *333:10 *420:C 0
17 *333:10 *431:C 0
*RES
1 *418:X *334:8 17.2643 
2 *334:8 *420:C 20.1214 
3 *334:8 *431:C 17.1214 
*END

*D_NET *335 0.000740841
*CONN
*I *435:A I *D sky130_fd_sc_hd__xor3_1
*I *452:A I *D sky130_fd_sc_hd__maj3_1
*I *419:X O *D sky130_fd_sc_hd__and2_0
*CAP
1 *435:A 0.000127573
2 *452:A 0
3 *419:X 0.000242848
4 *335:10 0.00037042
5 *435:A out[0] 0
6 *435:A *433:A 0
7 *435:A *345:17 0
8 *335:10 out[0] 0
9 *335:10 *433:A 0
10 *335:10 *433:B 0
11 *435:B *435:A 0
12 *475:C *435:A 0
13 *27:14 *335:10 0
*RES
1 *419:X *335:10 19.05 
2 *335:10 *452:A 13.8 
3 *335:10 *435:A 16.6036 
*END

*D_NET *336 0.000855326
*CONN
*I *430:C I *D sky130_fd_sc_hd__maj3_1
*I *421:C I *D sky130_fd_sc_hd__xor3_1
*I *420:X O *D sky130_fd_sc_hd__xnor3_1
*CAP
1 *430:C 0
2 *421:C 0.000259532
3 *420:X 0.000168131
4 *336:12 0.000427663
5 *336:12 *415:A 0
6 *336:12 *415:B 0
7 *420:C *336:12 0
8 *430:A *421:C 0
9 *430:A *336:12 0
10 *430:B *421:C 0
11 *430:B *336:12 0
12 *25:6 *421:C 0
13 *25:6 *336:12 0
14 *58:8 *421:C 0
15 *331:15 *336:12 0
*RES
1 *420:X *336:12 12.8714 
2 *336:12 *421:C 23.9607 
3 *336:12 *430:C 9.3 
*END

*D_NET *337 0.00188251
*CONN
*I *423:B I *D sky130_fd_sc_hd__xor2_1
*I *422:B I *D sky130_fd_sc_hd__nor2_1
*I *421:X O *D sky130_fd_sc_hd__xor3_1
*CAP
1 *423:B 0.000184262
2 *422:B 0
3 *421:X 0.000756994
4 *337:8 0.000941255
5 *423:B *726:CLK 0
6 *423:B *382:64 0
7 *337:8 *444:A 0
8 *337:8 *524:A 0
9 *337:8 *355:22 0
10 *337:8 *365:10 0
11 *337:8 *365:23 0
12 *337:8 *382:64 0
13 *422:A *423:B 0
14 *529:C *337:8 0
15 *40:8 *423:B 0
16 *40:8 *337:8 0
17 *58:8 *337:8 0
18 *310:140 *423:B 0
*RES
1 *421:X *337:8 30.925 
2 *337:8 *422:B 13.8 
3 *337:8 *423:B 17.8357 
*END

*D_NET *338 0.001344
*CONN
*I *445:A I *D sky130_fd_sc_hd__xor2_1
*I *444:A I *D sky130_fd_sc_hd__nand2_1
*I *422:Y O *D sky130_fd_sc_hd__nor2_1
*CAP
1 *445:A 2.58827e-05
2 *444:A 0.000187663
3 *422:Y 0.000458455
4 *338:10 0.000672001
5 *444:A *355:22 0
6 *338:10 *528:A1 0
7 *338:10 *355:22 0
8 *338:10 *379:20 0
9 *445:B *444:A 0
10 *501:B *444:A 0
11 *525:B *338:10 0
12 *40:8 *444:A 0
13 *40:8 *338:10 0
14 *92:8 *445:A 0
15 *337:8 *444:A 0
*RES
1 *422:Y *338:10 24.0857 
2 *338:10 *444:A 18.0143 
3 *338:10 *445:A 14.7464 
*END

*D_NET *339 0.00136399
*CONN
*I *424:B I *D sky130_fd_sc_hd__xor2_1
*I *429:C I *D sky130_fd_sc_hd__maj3_1
*I *423:X O *D sky130_fd_sc_hd__xor2_1
*CAP
1 *424:B 0.00022117
2 *429:C 6.58832e-05
3 *423:X 0.000394944
4 *339:10 0.000681997
5 *424:B out[8] 0
6 *424:B *747:A 0
7 *424:B *362:8 0
8 *424:B *373:19 0
9 *429:C *446:A 0
10 *429:C *727:CLK 0
11 *339:10 out[8] 0
12 *339:10 *450:A 0
13 *339:10 *362:8 0
14 *339:10 *379:12 0
15 *339:10 *382:64 0
16 *423:A *339:10 0
17 *429:B *429:C 0
18 *450:B *339:10 0
19 *726:D *339:10 0
20 *24:10 *429:C 0
*RES
1 *423:X *339:10 22.6571 
2 *339:10 *429:C 15.175 
3 *339:10 *424:B 18.7286 
*END

*D_NET *340 9.06964e-05
*CONN
*I *425:B I *D sky130_fd_sc_hd__xnor2_1
*I *424:X O *D sky130_fd_sc_hd__xor2_1
*CAP
1 *425:B 4.53482e-05
2 *424:X 4.53482e-05
3 *425:B *747:A 0
4 *425:B *361:28 0
5 *425:B *373:19 0
*RES
1 *424:X *425:B 19.5464 
*END

*D_NET *341 0.0127009
*CONN
*P a[0] I
*I *395:A1 I *D sky130_fd_sc_hd__a22oi_1
*I *388:B I *D sky130_fd_sc_hd__and3_1
*I *390:A2 I *D sky130_fd_sc_hd__a31o_1
*I *487:A I *D sky130_fd_sc_hd__nand2_1
*I *513:A I *D sky130_fd_sc_hd__nand2_1
*I *415:A I *D sky130_fd_sc_hd__nand2_1
*I *438:A I *D sky130_fd_sc_hd__nand4_1
*I *439:A1 I *D sky130_fd_sc_hd__a22oi_1
*I *457:A I *D sky130_fd_sc_hd__nand2_1
*I *403:A I *D sky130_fd_sc_hd__nand2_1
*I *394:A I *D sky130_fd_sc_hd__nand4_1
*CAP
1 a[0] 0.00190977
2 *395:A1 0
3 *388:B 0
4 *390:A2 0.000139418
5 *487:A 1.28344e-05
6 *513:A 0.000222624
7 *415:A 0.000459258
8 *438:A 0
9 *439:A1 0.00031707
10 *457:A 0
11 *403:A 0
12 *394:A 8.55626e-05
13 *341:161 0.000633329
14 *341:84 0.000734187
15 *341:78 0.00111078
16 *341:65 0.000713551
17 *341:59 0.00072231
18 *341:57 0.000438177
19 *341:42 0.00140069
20 *341:23 0.00114044
21 *341:19 0.000652002
22 *341:15 0.00200887
23 *390:A2 *389:A 0
24 *390:A2 *390:A1 0
25 *390:A2 *390:A3 0
26 *390:A2 *401:A2 0
27 *390:A2 *349:12 0
28 *390:A2 *357:32 0
29 *390:A2 *373:19 0
30 *394:A *394:B 0
31 *394:A *735:CLK 0
32 *394:A *380:56 0
33 *415:A *345:17 0
34 *415:A *367:22 0
35 *439:A1 *438:B 0
36 *439:A1 *439:A2 0
37 *439:A1 *439:B2 0
38 *439:A1 *371:45 0
39 *487:A *487:B 0
40 *513:A *487:B 0
41 *513:A *515:B 0
42 *513:A *375:15 0
43 *513:A *375:42 0
44 *513:A *383:9 0
45 *341:15 *395:B2 0
46 *341:15 *725:A1 0
47 *341:15 *745:RESET_B 0
48 *341:15 *359:72 0
49 *341:15 *369:13 0
50 *341:15 *381:95 0
51 *341:15 *382:200 0
52 *341:15 *382:204 0
53 *341:15 *382:210 0
54 *341:15 *383:232 0
55 *341:15 *383:243 0
56 *341:15 *383:254 0
57 *341:15 *383:267 0
58 *341:15 *383:282 0
59 *341:19 *342:17 0
60 *341:19 *342:19 0
61 *341:19 *369:19 0
62 *341:19 *380:48 0
63 *341:23 *342:19 0
64 *341:23 *369:19 0
65 *341:23 *369:21 0
66 *341:42 out[10] 0
67 *341:42 *405:A 0
68 *341:42 *350:10 0
69 *341:42 *369:21 0
70 *341:42 *369:23 0
71 *341:42 *380:56 0
72 *341:42 *383:39 0
73 *341:57 out[10] 0
74 *341:57 *342:104 0
75 *341:57 *342:127 0
76 *341:57 *369:23 0
77 *341:57 *369:48 0
78 *341:59 *487:B 0
79 *341:59 *515:B 0
80 *341:65 *487:B 0
81 *341:65 *515:A 0
82 *341:65 *342:41 0
83 *341:65 *373:44 0
84 *341:65 *375:15 0
85 *341:78 *457:B 0
86 *341:78 *342:41 0
87 *341:78 *345:17 0
88 *341:78 *367:22 0
89 *341:78 *373:44 0
90 *341:84 *342:41 0
91 *341:84 *371:45 0
92 *341:84 *373:44 0
93 *341:161 *388:C 0
94 *341:161 *390:B1 0
95 *341:161 *394:B 0
96 *341:161 *394:C 0
97 *341:161 *395:B1 0
98 *341:161 *349:29 0
99 *341:161 *368:99 0
100 *392:A2 *390:A2 0
101 *396:A *341:161 0
102 *396:SLEEP *341:161 0
103 *406:A *341:42 0
104 *407:A_N *341:161 0
105 *420:C *415:A 0
106 *421:A *415:A 0
107 *440:SLEEP *439:A1 0
108 *462:A *439:A1 0
109 *462:B *439:A1 0
110 *462:B *341:84 0
111 *465:C *439:A1 0
112 *474:A *341:84 0
113 *488:A *341:65 0
114 *517:C *513:A 0
115 *531:C *513:A 0
116 *595:B *341:42 0
117 *624:B1 *341:42 0
118 *703:B1 *341:15 0
119 *736:D *341:42 0
120 *739:D *341:15 0
121 *740:D *341:15 0
122 *26:12 *439:A1 0
123 *26:12 *341:84 0
124 *31:8 *341:84 0
125 *56:14 *439:A1 0
126 *79:6 *341:65 0
127 *80:6 *341:65 0
128 *105:10 *513:A 0
129 *107:8 *513:A 0
130 *109:10 *341:57 0
131 *307:10 *341:161 0
132 *325:12 *341:161 0
133 *331:15 *415:A 0
134 *332:14 *415:A 0
135 *332:14 *341:57 0
136 *336:12 *415:A 0
*RES
1 a[0] *341:15 46.9464 
2 *341:15 *341:19 6.75 
3 *341:19 *341:23 5.83929 
4 *341:23 *394:A 11.0857 
5 *341:23 *341:42 31.4911 
6 *341:42 *403:A 9.3 
7 *341:42 *341:57 18.0714 
8 *341:57 *341:59 0.428571 
9 *341:59 *341:65 10.125 
10 *341:65 *457:A 9.3 
11 *341:65 *341:78 9.66071 
12 *341:78 *341:84 13.2679 
13 *341:84 *439:A1 25.05 
14 *341:84 *438:A 9.3 
15 *341:78 *415:A 24.1214 
16 *341:59 *513:A 23.0054 
17 *341:57 *487:A 9.83571 
18 *341:19 *341:161 15.0536 
19 *341:161 *390:A2 21.3179 
20 *341:161 *388:B 9.3 
21 *341:15 *395:A1 9.3 
*END

*D_NET *342 0.0146159
*CONN
*P a[1] I
*I *395:B1 I *D sky130_fd_sc_hd__a22oi_1
*I *394:C I *D sky130_fd_sc_hd__nand4_1
*I *481:A I *D sky130_fd_sc_hd__nand2_1
*I *545:A I *D sky130_fd_sc_hd__nand2_1
*I *393:B I *D sky130_fd_sc_hd__nand2_1
*I *417:A I *D sky130_fd_sc_hd__and2_0
*I *515:A I *D sky130_fd_sc_hd__nand2_1
*I *436:A I *D sky130_fd_sc_hd__nand2_1
*I *438:B I *D sky130_fd_sc_hd__nand4_1
*I *439:B2 I *D sky130_fd_sc_hd__a22oi_1
*CAP
1 a[1] 0.00173276
2 *395:B1 4.92646e-05
3 *394:C 6.50276e-05
4 *481:A 0.000589831
5 *545:A 0
6 *393:B 2.0535e-05
7 *417:A 0
8 *515:A 0.000470167
9 *436:A 1.75403e-05
10 *438:B 0.000179328
11 *439:B2 0.000226313
12 *342:127 0.00133038
13 *342:104 0.000904825
14 *342:45 0.000685003
15 *342:41 0.000814507
16 *342:35 0.00125794
17 *342:31 0.000487032
18 *342:25 0.00123204
19 *342:19 0.00108905
20 *342:17 0.000966749
21 *342:15 0.00249765
22 *393:B *393:A 0
23 *394:C *394:B 0
24 *394:C *735:CLK 0
25 *395:B1 *381:95 0
26 *436:A *436:B 0
27 *438:B *438:C 0
28 *438:B *371:13 0
29 *439:B2 *439:A2 0
30 *439:B2 *372:147 0
31 *481:A *481:B 0
32 *481:A *373:44 0
33 *481:A *375:51 0
34 *515:A *487:B 0
35 *515:A *515:B 0
36 *515:A *373:44 0
37 *515:A *375:42 0
38 *342:15 out[16] 0
39 *342:15 out[4] 0
40 *342:15 *709:A2 0
41 *342:15 *711:A 0
42 *342:15 *729:RESET_B 0
43 *342:15 *741:RESET_B 0
44 *342:15 *742:CLK 0
45 *342:15 *355:45 0
46 *342:15 *355:58 0
47 *342:15 *356:14 0
48 *342:15 *356:18 0
49 *342:15 *357:20 0
50 *342:15 *357:24 0
51 *342:15 *382:118 0
52 *342:17 *395:B2 0
53 *342:17 *411:A1 0
54 *342:17 *428:A2 0
55 *342:17 *380:42 0
56 *342:17 *380:103 0
57 *342:17 *380:114 0
58 *342:17 *383:158 0
59 *342:19 *368:80 0
60 *342:25 *367:10 0
61 *342:25 *367:12 0
62 *342:25 *367:22 0
63 *342:25 *368:80 0
64 *342:25 *369:21 0
65 *342:31 *405:A 0
66 *342:31 *417:B 0
67 *342:31 *368:76 0
68 *342:31 *369:23 0
69 *342:35 *343:70 0
70 *342:35 *368:76 0
71 *342:41 *457:B 0
72 *342:41 *343:70 0
73 *342:41 *368:76 0
74 *342:45 *436:B 0
75 *342:45 *372:147 0
76 *342:104 *393:A 0
77 *342:127 *393:A 0
78 *342:127 *375:42 0
79 *342:127 *375:51 0
80 *400:B1 *342:17 0
81 *402:C *342:17 0
82 *406:B *342:25 0
83 *406:C *342:25 0
84 *407:A_N *394:C 0
85 *412:A2 *342:17 0
86 *414:B *342:17 0
87 *416:A *342:104 0
88 *416:B *342:104 0
89 *416:C *393:B 0
90 *416:C *342:104 0
91 *439:A1 *438:B 0
92 *439:A1 *439:B2 0
93 *440:SLEEP *439:B2 0
94 *441:A *342:45 0
95 *441:B *342:45 0
96 *451:C *439:B2 0
97 *451:C *342:45 0
98 *460:C *342:41 0
99 *465:C *439:B2 0
100 *474:A *342:41 0
101 *474:A *342:45 0
102 *486:A *342:41 0
103 *486:B *342:41 0
104 *552:B *342:127 0
105 *553:B *342:127 0
106 *554:A *342:127 0
107 *555:A *342:127 0
108 *565:A1 *481:A 0
109 *565:A1 *342:127 0
110 *566:C *481:A 0
111 *591:C *342:25 0
112 *593:A2 *342:25 0
113 *708:A2 *342:15 0
114 *728:D *342:17 0
115 *26:12 *438:B 0
116 *31:8 *436:A 0
117 *31:29 *342:41 0
118 *35:12 *439:B2 0
119 *45:14 *342:45 0
120 *80:6 *515:A 0
121 *123:12 *481:A 0
122 *123:12 *342:127 0
123 *136:10 *481:A 0
124 *136:10 *342:127 0
125 *137:10 *481:A 0
126 *140:16 *481:A 0
127 *144:14 *342:127 0
128 *145:10 *342:127 0
129 *146:16 *342:127 0
130 *156:10 *481:A 0
131 *288:20 *342:15 0
132 *294:6 *342:15 0
133 *294:18 *342:15 0
134 *299:10 *342:15 0
135 *299:14 *342:15 0
136 *310:276 *342:17 0
137 *312:25 *342:19 0
138 *314:10 *342:17 0
139 *320:10 *342:25 0
140 *320:10 *342:31 0
141 *325:12 *395:B1 0
142 *325:12 *342:17 0
143 *332:14 *342:104 0
144 *333:10 *342:31 0
145 *341:19 *342:17 0
146 *341:19 *342:19 0
147 *341:23 *342:19 0
148 *341:57 *342:104 0
149 *341:57 *342:127 0
150 *341:65 *515:A 0
151 *341:65 *342:41 0
152 *341:78 *342:41 0
153 *341:84 *342:41 0
154 *341:161 *394:C 0
155 *341:161 *395:B1 0
*RES
1 a[1] *342:15 46.2321 
2 *342:15 *342:17 17.4286 
3 *342:17 *342:19 3.46429 
4 *342:19 *342:25 19.9107 
5 *342:25 *342:31 9.23214 
6 *342:31 *342:35 10.6964 
7 *342:35 *342:41 15.4107 
8 *342:41 *342:45 5.89286 
9 *342:45 *439:B2 13.9607 
10 *342:45 *438:B 22.3714 
11 *342:41 *436:A 9.72857 
12 *342:35 *515:A 24.3357 
13 *342:31 *417:A 9.3 
14 *342:25 *342:104 7.5 
15 *342:104 *393:B 9.72857 
16 *342:104 *342:127 15.8571 
17 *342:127 *545:A 9.3 
18 *342:127 *481:A 31.7464 
19 *342:19 *394:C 15.1571 
20 *342:17 *395:B1 14.8714 
*END

*D_NET *343 0.00895109
*CONN
*P a[2] I
*I *577:A I *D sky130_fd_sc_hd__nand2_1
*I *547:A I *D sky130_fd_sc_hd__nand2_1
*I *508:A I *D sky130_fd_sc_hd__nand2_1
*I *404:A I *D sky130_fd_sc_hd__nand2_1
*I *405:B I *D sky130_fd_sc_hd__and2_0
*I *458:A I *D sky130_fd_sc_hd__nand2_1
*I *432:A I *D sky130_fd_sc_hd__and2_0
*I *459:A I *D sky130_fd_sc_hd__nand2_1
*CAP
1 a[2] 0.00038068
2 *577:A 0.000280913
3 *547:A 5.98938e-05
4 *508:A 4.91985e-05
5 *404:A 0.000221271
6 *405:B 2.56688e-05
7 *458:A 0.000200216
8 *432:A 0.000441904
9 *459:A 4.62038e-05
10 *343:115 0.00056462
11 *343:98 0.000876623
12 *343:70 0.000787285
13 *343:53 0.00109094
14 *343:36 0.0016939
15 *343:22 0.00165506
16 *343:7 0.000576717
17 *404:A *418:B 0
18 *404:A *368:76 0
19 *405:B *405:A 0
20 *432:A *419:A 0
21 *432:A *344:71 0
22 *432:A *370:46 0
23 *432:A *375:15 0
24 *458:A *371:66 0
25 *508:A *373:76 0
26 *547:A *547:B 0
27 *547:A *374:139 0
28 *577:A *374:139 0
29 *343:7 *345:54 0
30 *343:22 *459:B 0
31 *343:22 *345:54 0
32 *343:36 *368:49 0
33 *343:36 *372:15 0
34 *343:53 *368:76 0
35 *343:53 *370:46 0
36 *343:53 *371:66 0
37 *343:53 *375:15 0
38 *343:70 *418:A 0
39 *343:70 *368:76 0
40 *343:70 *375:15 0
41 *343:98 *506:B 0
42 *343:98 *345:54 0
43 *343:98 *368:37 0
44 *343:98 *368:49 0
45 *343:115 *547:B 0
46 *416:C *404:A 0
47 *456:B *343:36 0
48 *456:C *343:36 0
49 *476:A *343:36 0
50 *480:C *459:A 0
51 *484:B *343:22 0
52 *485:C *343:36 0
53 *490:C *458:A 0
54 *490:C *343:53 0
55 *503:A *343:36 0
56 *503:B *343:36 0
57 *514:A *343:36 0
58 *543:A *343:115 0
59 *544:A *577:A 0
60 *544:A *343:115 0
61 *544:B *547:A 0
62 *546:A *343:98 0
63 *546:B *343:98 0
64 *546:C *343:98 0
65 *549:B *577:A 0
66 *566:C *577:A 0
67 *567:B1 *577:A 0
68 *48:10 *459:A 0
69 *52:12 *458:A 0
70 *52:12 *343:70 0
71 *53:8 *459:A 0
72 *68:12 *343:36 0
73 *73:14 *459:A 0
74 *73:14 *343:36 0
75 *73:14 *343:98 0
76 *75:10 *343:7 0
77 *83:14 *458:A 0
78 *100:8 *343:98 0
79 *110:14 *404:A 0
80 *110:14 *343:70 0
81 *124:10 *343:98 0
82 *124:10 *343:115 0
83 *124:16 *577:A 0
84 *135:6 *547:A 0
85 *135:6 *577:A 0
86 *137:10 *343:115 0
87 *156:10 *577:A 0
88 *157:12 *577:A 0
89 *321:6 *404:A 0
90 *322:6 *405:B 0
91 *332:14 *404:A 0
92 *342:35 *343:70 0
93 *342:41 *343:70 0
*RES
1 a[2] *343:7 8.64286 
2 *343:7 *459:A 14.7643 
3 *343:7 *343:22 7.96429 
4 *343:22 *343:36 23.4107 
5 *343:36 *432:A 23.425 
6 *343:36 *343:53 12.2857 
7 *343:53 *458:A 13.6929 
8 *343:53 *343:70 16.7679 
9 *343:70 *405:B 14.3357 
10 *343:70 *404:A 18.6571 
11 *343:22 *343:98 17.7679 
12 *343:98 *508:A 14.7643 
13 *343:98 *343:115 9.60714 
14 *343:115 *547:A 10.675 
15 *343:115 *577:A 24.5321 
*END

*D_NET *344 0.0132564
*CONN
*P a[3] I
*I *537:A I *D sky130_fd_sc_hd__nand2_1
*I *579:A I *D sky130_fd_sc_hd__nand2_1
*I *607:A I *D sky130_fd_sc_hd__nand2_1
*I *482:A I *D sky130_fd_sc_hd__nand2_1
*I *419:B I *D sky130_fd_sc_hd__and2_0
*I *418:A I *D sky130_fd_sc_hd__and2_0
*I *453:A I *D sky130_fd_sc_hd__and2_0
*I *483:A I *D sky130_fd_sc_hd__nand2_1
*CAP
1 a[3] 0.000780432
2 *537:A 4.6995e-05
3 *579:A 0.000702469
4 *607:A 0
5 *482:A 0
6 *419:B 0
7 *418:A 0.00124485
8 *453:A 0
9 *483:A 6.58832e-05
10 *344:106 0.00138669
11 *344:71 0.00174026
12 *344:58 0.00101263
13 *344:50 0.00174319
14 *344:19 0.00182469
15 *344:15 0.00154899
16 *344:7 0.00115936
17 *418:A *418:B 0
18 *418:A *433:B 0
19 *418:A *345:17 0
20 *418:A *375:15 0
21 *483:A *483:B 0
22 *483:A *372:46 0
23 *483:A *373:76 0
24 *579:A *579:B 0
25 *579:A *607:B 0
26 *579:A *373:112 0
27 *579:A *373:118 0
28 *579:A *375:72 0
29 *344:15 *345:68 0
30 *344:15 *346:46 0
31 *344:15 *372:46 0
32 *344:19 *535:A2 0
33 *344:19 *538:B 0
34 *344:19 *371:96 0
35 *344:19 *372:46 0
36 *344:19 *373:76 0
37 *344:50 *455:A 0
38 *344:50 *455:B 0
39 *344:50 *477:A 0
40 *344:50 *477:B 0
41 *344:50 *506:B 0
42 *344:50 *360:66 0
43 *344:50 *368:9 0
44 *344:50 *368:37 0
45 *344:50 *369:80 0
46 *344:50 *369:97 0
47 *344:50 *370:13 0
48 *344:50 *370:21 0
49 *344:58 *482:B 0
50 *344:58 *369:80 0
51 *344:58 *370:21 0
52 *344:58 *370:31 0
53 *344:71 *419:A 0
54 *344:71 *432:B 0
55 *344:71 *433:B 0
56 *344:71 *369:50 0
57 *344:71 *369:80 0
58 *344:71 *370:31 0
59 *344:106 *571:A 0
60 *344:106 *603:B1 0
61 *344:106 *346:46 0
62 *344:106 *346:59 0
63 *344:106 *346:69 0
64 *344:106 *347:60 0
65 *344:106 *348:81 0
66 *344:106 *371:100 0
67 *344:106 *372:46 0
68 *431:B *418:A 0
69 *431:C *418:A 0
70 *432:A *344:71 0
71 *452:C *418:A 0
72 *540:A *344:15 0
73 *540:B *344:15 0
74 *540:C *344:19 0
75 *541:C *344:19 0
76 *557:B1 *418:A 0
77 *568:C *344:19 0
78 *578:A *537:A 0
79 *578:A *344:7 0
80 *578:A *344:15 0
81 *578:B *344:15 0
82 *582:A *579:A 0
83 *596:A2 *579:A 0
84 *604:A *579:A 0
85 *604:B *344:106 0
86 *605:A *579:A 0
87 *634:B1 *579:A 0
88 *27:14 *418:A 0
89 *27:14 *344:71 0
90 *46:14 *418:A 0
91 *49:10 *344:50 0
92 *51:10 *418:A 0
93 *70:10 *344:50 0
94 *110:14 *418:A 0
95 *111:12 *418:A 0
96 *124:10 *344:50 0
97 *158:16 *344:106 0
98 *161:12 *344:106 0
99 *168:16 *344:15 0
100 *168:16 *344:19 0
101 *172:8 *579:A 0
102 *191:10 *344:106 0
103 *193:12 *579:A 0
104 *193:12 *344:106 0
105 *202:8 *579:A 0
106 *334:8 *418:A 0
107 *343:70 *418:A 0
*RES
1 a[3] *344:7 17.75 
2 *344:7 *344:15 16.0179 
3 *344:15 *344:19 15.7143 
4 *344:19 *483:A 10.675 
5 *344:19 *344:50 36.0179 
6 *344:50 *344:58 10.8571 
7 *344:58 *453:A 9.3 
8 *344:58 *344:71 10.5536 
9 *344:71 *418:A 46.3714 
10 *344:71 *419:B 9.3 
11 *344:50 *482:A 9.3 
12 *344:15 *344:106 20.1607 
13 *344:106 *607:A 9.3 
14 *344:106 *579:A 23.9607 
15 *344:7 *537:A 14.8357 
*END

*D_NET *345 0.0197688
*CONN
*P a[4] I
*I *434:B I *D sky130_fd_sc_hd__and2_0
*I *477:A I *D sky130_fd_sc_hd__nand2_1
*I *509:A I *D sky130_fd_sc_hd__nand2_1
*I *609:A I *D sky130_fd_sc_hd__nand2_1
*I *633:A I *D sky130_fd_sc_hd__nand2_1
*I *570:A I *D sky130_fd_sc_hd__nand2_1
*I *510:A I *D sky130_fd_sc_hd__nand2_1
*I *433:A I *D sky130_fd_sc_hd__and2_0
*CAP
1 a[4] 0.00243733
2 *434:B 0
3 *477:A 0.000314503
4 *509:A 3.61213e-05
5 *609:A 0
6 *633:A 0.000379952
7 *570:A 3.50807e-05
8 *510:A 0
9 *433:A 0.000264526
10 *345:100 0.000939786
11 *345:79 0.00110845
12 *345:68 0.00151661
13 *345:54 0.00172543
14 *345:50 0.00193545
15 *345:38 0.00150174
16 *345:17 0.00298404
17 *345:11 0.00458982
18 *433:A *433:B 0
19 *477:A *368:9 0
20 *477:A *370:13 0
21 *477:A *370:21 0
22 *570:A *570:B 0
23 *633:A out[7] 0
24 *633:A *346:92 0
25 *633:A *347:70 0
26 *633:A *348:62 0
27 *633:A *373:137 0
28 *633:A *375:78 0
29 *633:A *375:99 0
30 *345:11 *743:RESET_B 0
31 *345:11 *356:10 0
32 *345:11 *357:32 0
33 *345:11 *381:56 0
34 *345:11 *381:58 0
35 *345:11 *381:66 0
36 *345:17 *390:A3 0
37 *345:17 *735:CLK 0
38 *345:17 *357:32 0
39 *345:17 *367:22 0
40 *345:17 *368:80 0
41 *345:38 out[10] 0
42 *345:38 *419:A 0
43 *345:38 *434:A 0
44 *345:38 *369:48 0
45 *345:38 *369:50 0
46 *345:38 *370:46 0
47 *345:50 out[10] 0
48 *345:50 *370:21 0
49 *345:50 *370:31 0
50 *345:54 *459:B 0
51 *345:54 *368:9 0
52 *345:54 *368:37 0
53 *345:54 *372:32 0
54 *345:68 *537:B 0
55 *345:68 *346:46 0
56 *345:68 *371:96 0
57 *345:68 *372:46 0
58 *345:68 *372:61 0
59 *345:68 *374:7 0
60 *345:79 *537:B 0
61 *345:79 *346:46 0
62 *345:79 *346:59 0
63 *345:79 *372:61 0
64 *345:79 *373:76 0
65 *345:79 *373:93 0
66 *345:100 *348:62 0
67 *345:100 *372:98 0
68 *345:100 *373:93 0
69 *345:100 *373:112 0
70 *408:B *345:17 0
71 *415:A *345:17 0
72 *418:A *345:17 0
73 *431:A *345:17 0
74 *431:B *345:17 0
75 *435:A *433:A 0
76 *435:A *345:17 0
77 *435:B *345:38 0
78 *435:C *433:A 0
79 *452:C *433:A 0
80 *452:C *345:17 0
81 *452:C *345:38 0
82 *456:C *345:38 0
83 *512:C *345:54 0
84 *540:A *345:79 0
85 *546:C *345:54 0
86 *557:A2 *345:17 0
87 *564:C *345:17 0
88 *592:B1 *345:17 0
89 *602:A *570:A 0
90 *608:B *345:79 0
91 *611:B *345:100 0
92 *627:B *345:100 0
93 *714:A *345:11 0
94 *718:A3 *345:11 0
95 *735:D *345:17 0
96 *27:14 *433:A 0
97 *27:14 *345:17 0
98 *27:14 *345:38 0
99 *46:14 *345:38 0
100 *50:14 *345:38 0
101 *51:10 *345:17 0
102 *101:10 *345:54 0
103 *103:10 *345:54 0
104 *111:12 *345:17 0
105 *137:10 *509:A 0
106 *137:10 *345:54 0
107 *149:8 *345:17 0
108 *160:8 *345:79 0
109 *197:10 *345:79 0
110 *197:10 *345:100 0
111 *215:22 *345:100 0
112 *307:10 *345:17 0
113 *307:31 *345:11 0
114 *307:31 *345:17 0
115 *310:224 *345:11 0
116 *323:8 *345:17 0
117 *334:8 *345:17 0
118 *335:10 *433:A 0
119 *341:78 *345:17 0
120 *343:7 *345:54 0
121 *343:22 *345:54 0
122 *343:98 *345:54 0
123 *344:15 *345:68 0
124 *344:50 *477:A 0
*RES
1 a[4] *345:11 30.7483 
2 *345:11 *345:17 48.9018 
3 *345:17 *433:A 19.3714 
4 *345:17 *345:38 25.4286 
5 *345:38 *345:50 28.6786 
6 *345:50 *345:54 19.9554 
7 *345:54 *345:68 16.2267 
8 *345:68 *510:A 9.3 
9 *345:68 *345:79 15.9107 
10 *345:79 *570:A 14.5321 
11 *345:79 *345:100 17.0893 
12 *345:100 *633:A 30.7786 
13 *345:100 *609:A 9.3 
14 *345:54 *509:A 14.6839 
15 *345:50 *477:A 24.9964 
16 *345:38 *434:B 9.3 
*END

*D_NET *346 0.007521
*CONN
*P a[5] I
*I *539:A I *D sky130_fd_sc_hd__nand2_1
*I *634:A1 I *D sky130_fd_sc_hd__a31oi_1
*I *656:A I *D sky130_fd_sc_hd__nand2_1
*I *635:A I *D sky130_fd_sc_hd__nand2_1
*I *600:A I *D sky130_fd_sc_hd__nand2_1
*I *538:A I *D sky130_fd_sc_hd__nand2_1
*I *505:A I *D sky130_fd_sc_hd__and2_0
*I *455:B I *D sky130_fd_sc_hd__nand2_1
*I *454:A I *D sky130_fd_sc_hd__and2_0
*CAP
1 a[5] 0.000343713
2 *539:A 0.000269094
3 *634:A1 0
4 *656:A 0.000218185
5 *635:A 3.50807e-05
6 *600:A 0
7 *538:A 0
8 *505:A 0.000107595
9 *455:B 0.000395299
10 *454:A 9.45467e-05
11 *346:92 0.000750394
12 *346:73 0.000609602
13 *346:69 0.000570827
14 *346:59 0.00108939
15 *346:46 0.000853878
16 *346:31 0.000738746
17 *346:9 0.000725785
18 *346:5 0.000718867
19 *454:A *454:B 0
20 *454:A *505:B 0
21 *455:B *369:80 0
22 *455:B *370:13 0
23 *505:A *505:B 0
24 *539:A *347:70 0
25 *635:A *633:B 0
26 *656:A *656:B 0
27 *656:A *375:99 0
28 *346:9 *505:B 0
29 *346:46 *537:B 0
30 *346:59 *571:A 0
31 *346:59 *347:70 0
32 *346:59 *372:61 0
33 *346:69 *571:A 0
34 *346:69 *347:70 0
35 *346:69 *372:61 0
36 *346:69 *373:112 0
37 *346:73 *375:78 0
38 *346:92 *633:B 0
39 *346:92 *347:70 0
40 *346:92 *375:78 0
41 *346:92 *375:99 0
42 *573:A *539:A 0
43 *578:C *346:46 0
44 *602:B *539:A 0
45 *602:B *346:69 0
46 *608:A *539:A 0
47 *608:A *346:59 0
48 *608:B *539:A 0
49 *608:C *346:59 0
50 *611:A *346:69 0
51 *627:B *346:69 0
52 *633:A *346:92 0
53 *634:A3 *346:69 0
54 *634:B1 *346:69 0
55 *636:B *346:92 0
56 *655:B *346:92 0
57 *48:10 *454:A 0
58 *48:10 *455:B 0
59 *97:6 *505:A 0
60 *129:10 *346:46 0
61 *130:6 *539:A 0
62 *168:16 *346:46 0
63 *191:10 *346:69 0
64 *193:12 *346:69 0
65 *196:12 *346:69 0
66 *196:12 *346:73 0
67 *215:22 *656:A 0
68 *221:6 *346:92 0
69 *222:8 *346:73 0
70 *222:8 *346:92 0
71 *223:10 *346:92 0
72 *227:20 *635:A 0
73 *227:20 *656:A 0
74 *227:20 *346:92 0
75 *344:15 *346:46 0
76 *344:50 *455:B 0
77 *344:106 *346:46 0
78 *344:106 *346:59 0
79 *344:106 *346:69 0
80 *345:68 *346:46 0
81 *345:79 *346:46 0
82 *345:79 *346:59 0
*RES
1 a[5] *346:5 7.80357 
2 *346:5 *346:9 9.55357 
3 *346:9 *454:A 11.4786 
4 *346:9 *455:B 17.55 
5 *346:5 *346:31 7.66071 
6 *346:31 *505:A 12.7107 
7 *346:31 *346:46 15.5179 
8 *346:46 *538:A 13.8 
9 *346:46 *346:59 12.6607 
10 *346:59 *346:69 19.2143 
11 *346:69 *346:73 7.05357 
12 *346:73 *600:A 13.8 
13 *346:73 *346:92 15.7857 
14 *346:92 *635:A 10.0321 
15 *346:92 *656:A 14.2286 
16 *346:69 *634:A1 9.3 
17 *346:59 *539:A 14.9786 
*END

*D_NET *347 0.00824846
*CONN
*P a[6] I
*I *603:A1 I *D sky130_fd_sc_hd__a22oi_1
*I *571:A I *D sky130_fd_sc_hd__nand2_1
*I *572:A I *D sky130_fd_sc_hd__nand2_1
*I *659:A1 I *D sky130_fd_sc_hd__a21oi_1
*I *680:B2 I *D sky130_fd_sc_hd__a22oi_1
*I *658:A I *D sky130_fd_sc_hd__nand2_1
*I *631:B2 I *D sky130_fd_sc_hd__a22oi_1
*I *535:B2 I *D sky130_fd_sc_hd__a22oi_1
*I *479:B I *D sky130_fd_sc_hd__and2_0
*I *478:A I *D sky130_fd_sc_hd__nand2_1
*CAP
1 a[6] 0.000466804
2 *603:A1 0
3 *571:A 0.000205099
4 *572:A 2.94948e-05
5 *659:A1 0
6 *680:B2 4.61931e-05
7 *658:A 0
8 *631:B2 0
9 *535:B2 2.56688e-05
10 *479:B 4.53482e-05
11 *478:A 0.000143745
12 *347:99 0.000611521
13 *347:87 0.000645543
14 *347:83 0.000293298
15 *347:70 0.00115215
16 *347:60 0.00131288
17 *347:48 0.0010244
18 *347:27 0.00103395
19 *347:16 0.000385128
20 *347:5 0.000827238
21 *478:A *454:B 0
22 *479:B *506:A 0
23 *571:A *571:B 0
24 *571:A *372:61 0
25 *680:B2 *351:56 0
26 *347:5 *454:B 0
27 *347:5 *455:A 0
28 *347:5 *369:97 0
29 *347:5 *370:9 0
30 *347:5 *370:78 0
31 *347:16 *360:66 0
32 *347:16 *370:93 0
33 *347:27 *360:66 0
34 *347:27 *370:93 0
35 *347:48 *603:A2 0
36 *347:48 *348:81 0
37 *347:48 *360:66 0
38 *347:48 *370:106 0
39 *347:48 *374:9 0
40 *347:48 *375:72 0
41 *347:60 *603:B1 0
42 *347:70 *601:A 0
43 *347:70 *348:62 0
44 *347:70 *372:61 0
45 *347:70 *373:137 0
46 *347:70 *375:99 0
47 *347:83 *572:B 0
48 *347:83 *631:A2 0
49 *347:87 *572:B 0
50 *347:87 *374:53 0
51 *347:99 out[11] 0
52 *347:99 *678:A 0
53 *347:99 *678:B 0
54 *347:99 *680:A1 0
55 *347:99 *351:56 0
56 *347:99 *360:66 0
57 *347:99 *374:53 0
58 *347:99 *375:99 0
59 *347:99 *375:105 0
60 *347:99 *385:47 0
61 *507:C *478:A 0
62 *539:A *347:70 0
63 *598:A1 *347:48 0
64 *598:A2 *347:48 0
65 *598:B1 *347:48 0
66 *602:A *347:48 0
67 *602:A *347:70 0
68 *602:B *347:70 0
69 *604:B *347:48 0
70 *608:B *571:A 0
71 *608:C *571:A 0
72 *610:B *347:70 0
73 *632:A *347:83 0
74 *632:B *347:83 0
75 *632:B *347:87 0
76 *632:B *347:99 0
77 *633:A *347:70 0
78 *638:B *347:70 0
79 *638:C *572:A 0
80 *638:C *347:83 0
81 *655:B *347:70 0
82 *655:C *347:70 0
83 *659:B1 *347:99 0
84 *660:A2 *572:A 0
85 *661:B *347:99 0
86 *679:B *347:99 0
87 *681:B *347:99 0
88 *71:10 *347:5 0
89 *96:14 *478:A 0
90 *96:14 *347:5 0
91 *96:14 *347:16 0
92 *98:12 *479:B 0
93 *158:16 *347:48 0
94 *161:12 *347:70 0
95 *187:10 *347:48 0
96 *196:12 *347:70 0
97 *198:8 *347:70 0
98 *218:12 *347:83 0
99 *218:12 *347:87 0
100 *222:8 *347:70 0
101 *242:10 *347:70 0
102 *243:12 *347:99 0
103 *245:18 *347:99 0
104 *246:10 *347:99 0
105 *263:10 *347:87 0
106 *263:10 *347:99 0
107 *344:106 *571:A 0
108 *344:106 *347:60 0
109 *346:59 *571:A 0
110 *346:59 *347:70 0
111 *346:69 *571:A 0
112 *346:69 *347:70 0
113 *346:92 *347:70 0
*RES
1 a[6] *347:5 10.5357 
2 *347:5 *478:A 16.8 
3 *347:5 *347:16 4.98214 
4 *347:16 *479:B 14.7464 
5 *347:16 *347:27 2.85714 
6 *347:27 *535:B2 14.3357 
7 *347:27 *347:48 24.25 
8 *347:48 *347:60 12.25 
9 *347:60 *347:70 30.6429 
10 *347:70 *631:B2 9.3 
11 *347:70 *347:83 8.44643 
12 *347:83 *347:87 6.26786 
13 *347:87 *347:99 21.0536 
14 *347:99 *658:A 9.3 
15 *347:99 *680:B2 10.3893 
16 *347:87 *659:A1 9.3 
17 *347:83 *572:A 14.5321 
18 *347:60 *571:A 22.8357 
19 *347:48 *603:A1 9.3 
*END

*D_NET *348 0.008563
*CONN
*P a[7] I
*I *629:A I *D sky130_fd_sc_hd__nand2_1
*I *631:A1 I *D sky130_fd_sc_hd__a22oi_1
*I *603:B2 I *D sky130_fd_sc_hd__a22oi_1
*I *599:B1 I *D sky130_fd_sc_hd__o211a_1
*I *569:C I *D sky130_fd_sc_hd__nand3b_1
*I *535:A2 I *D sky130_fd_sc_hd__a22oi_1
*I *506:A I *D sky130_fd_sc_hd__and2_0
*I *536:A1 I *D sky130_fd_sc_hd__a31oi_1
*I *601:A I *D sky130_fd_sc_hd__nand2_1
*I *693:A I *D sky130_fd_sc_hd__nand3_1
*I *680:A1 I *D sky130_fd_sc_hd__a22oi_1
*I *678:A I *D sky130_fd_sc_hd__nand2_1
*CAP
1 a[7] 0.000202452
2 *629:A 7.522e-05
3 *631:A1 0
4 *603:B2 2.56688e-05
5 *599:B1 0.000131553
6 *569:C 9.26215e-05
7 *535:A2 9.75414e-05
8 *506:A 0.000375151
9 *536:A1 8.77017e-05
10 *601:A 9.36068e-05
11 *693:A 2.01072e-05
12 *680:A1 0.000175713
13 *678:A 0.000271032
14 *348:106 0.000662619
15 *348:95 0.000540769
16 *348:87 0.000478854
17 *348:85 0.000359842
18 *348:81 0.000434351
19 *348:62 0.00112699
20 *348:54 0.00105257
21 *348:48 0.000397897
22 *348:28 0.000221383
23 *348:9 0.000866748
24 *348:5 0.000772606
25 *506:A *506:B 0
26 *506:A *535:A1 0
27 *506:A *369:97 0
28 *506:A *372:46 0
29 *536:A1 *370:117 0
30 *536:A1 *373:76 0
31 *569:C *571:B 0
32 *599:B1 *599:C1 0
33 *601:A *372:61 0
34 *629:A *657:A 0
35 *678:A *678:B 0
36 *678:A *351:56 0
37 *678:A *375:105 0
38 *678:A *375:111 0
39 *680:A1 *680:A2 0
40 *680:A1 *375:111 0
41 *348:9 *374:70 0
42 *348:54 *572:B 0
43 *348:54 *631:A2 0
44 *348:62 *572:B 0
45 *348:62 *629:B 0
46 *348:62 *372:98 0
47 *348:62 *373:137 0
48 *348:81 *603:A2 0
49 *348:81 *607:B 0
50 *348:81 *372:87 0
51 *348:81 *373:112 0
52 *348:85 *603:B1 0
53 *348:85 *375:78 0
54 *348:87 *599:C1 0
55 *348:87 *603:B1 0
56 *348:95 *599:C1 0
57 *348:95 *603:B1 0
58 *348:95 *370:117 0
59 *348:95 *371:100 0
60 *348:95 *373:76 0
61 *479:B *506:A 0
62 *507:A *506:A 0
63 *507:C *506:A 0
64 *536:A3 *536:A1 0
65 *536:B1 *506:A 0
66 *536:B1 *536:A1 0
67 *536:B1 *348:106 0
68 *541:C *535:A2 0
69 *574:A *569:C 0
70 *574:A *348:95 0
71 *602:A *603:B2 0
72 *604:B *348:81 0
73 *610:B *348:62 0
74 *627:B *348:62 0
75 *633:A *348:62 0
76 *637:B *348:62 0
77 *657:B *629:A 0
78 *657:B *348:54 0
79 *661:B *693:A 0
80 *681:B *680:A1 0
81 *693:C *680:A1 0
82 *72:42 *506:A 0
83 *72:57 *536:A1 0
84 *98:12 *506:A 0
85 *125:12 *506:A 0
86 *125:12 *348:106 0
87 *127:10 *348:106 0
88 *158:16 *599:B1 0
89 *161:12 *599:B1 0
90 *163:8 *569:C 0
91 *163:8 *599:B1 0
92 *164:14 *599:B1 0
93 *166:16 *348:85 0
94 *168:16 *348:95 0
95 *168:16 *348:106 0
96 *188:10 *348:81 0
97 *188:10 *348:85 0
98 *193:12 *348:81 0
99 *197:10 *601:A 0
100 *197:10 *348:62 0
101 *198:8 *348:62 0
102 *215:22 *348:62 0
103 *225:12 *348:54 0
104 *243:12 *678:A 0
105 *243:12 *348:28 0
106 *278:22 *680:A1 0
107 *344:19 *535:A2 0
108 *344:106 *348:81 0
109 *345:100 *348:62 0
110 *347:48 *348:81 0
111 *347:70 *601:A 0
112 *347:70 *348:62 0
113 *347:99 *678:A 0
114 *347:99 *680:A1 0
*RES
1 a[7] *348:5 0.733202 
2 *348:5 *348:9 5.47487 
3 *348:9 *678:A 19.6661 
4 *348:9 *348:28 5.08036 
5 *348:28 *680:A1 13.5545 
6 *348:28 *693:A 10.0321 
7 *348:5 *348:48 3.41 
8 *348:48 *348:54 11.5268 
9 *348:54 *348:62 21.0714 
10 *348:62 *601:A 15.9116 
11 *348:62 *348:81 15.4821 
12 *348:81 *348:85 2.48214 
13 *348:85 *348:87 2.85714 
14 *348:87 *348:95 10.1786 
15 *348:95 *536:A1 11.0679 
16 *348:95 *348:106 8.875 
17 *348:106 *506:A 21.8357 
18 *348:106 *535:A2 15.8357 
19 *348:87 *569:C 16.0143 
20 *348:85 *599:B1 16.8357 
21 *348:81 *603:B2 14.3357 
22 *348:54 *631:A1 9.3 
23 *348:48 *629:A 15.5232 
*END

*D_NET *349 0.0054637
*CONN
*P out[0] O
*I *390:B1 I *D sky130_fd_sc_hd__a31o_1
*I *401:A2 I *D sky130_fd_sc_hd__a21o_1
*I *388:A I *D sky130_fd_sc_hd__and3_1
*I *726:Q O *D sky130_fd_sc_hd__dfrtp_1
*CAP
1 out[0] 0.00216478
2 *390:B1 9.71136e-05
3 *401:A2 0.000259554
4 *388:A 2.56688e-05
5 *726:Q 0
6 *349:29 0.000418701
7 *349:12 0.00231315
8 *349:4 0.000184731
9 out[0] *457:B 0
10 out[0] *559:A 0
11 out[0] *357:32 0
12 out[0] *366:20 0
13 out[0] *367:22 0
14 out[0] *371:51 0
15 out[0] *373:19 0
16 out[0] *373:21 0
17 *390:B1 *390:A3 0
18 *401:A2 *357:32 0
19 *401:A2 *373:19 0
20 *401:A2 *382:54 0
21 *349:12 *357:32 0
22 *349:12 *373:19 0
23 *349:29 *389:A 0
24 *390:A2 *401:A2 0
25 *390:A2 *349:12 0
26 *392:A2 *388:A 0
27 *392:A2 *349:29 0
28 *396:SLEEP *390:B1 0
29 *435:A out[0] 0
30 *435:C out[0] 0
31 *562:A2 out[0] 0
32 *27:14 out[0] 0
33 *54:10 out[0] 0
34 *83:14 out[0] 0
35 *84:14 out[0] 0
36 *114:12 out[0] 0
37 *324:10 *388:A 0
38 *335:10 out[0] 0
39 *341:161 *390:B1 0
40 *341:161 *349:29 0
*RES
1 *726:Q *349:4 9.3 
2 *349:4 *349:12 7.41071 
3 *349:12 out[0] 49.0893 
4 *349:12 *388:A 14.3357 
5 *349:4 *349:29 1.35714 
6 *349:29 *401:A2 24.1929 
7 *349:29 *390:B1 11.3893 
*END

*D_NET *350 0.00595826
*CONN
*P out[10] O
*I *625:A I *D sky130_fd_sc_hd__maj3_1
*I *621:A I *D sky130_fd_sc_hd__xnor3_1
*I *651:A2 I *D sky130_fd_sc_hd__a21o_1
*I *622:A1 I *D sky130_fd_sc_hd__o21ai_0
*I *736:Q O *D sky130_fd_sc_hd__dfrtp_1
*CAP
1 out[10] 0.00209745
2 *625:A 4.23535e-05
3 *621:A 4.53482e-05
4 *651:A2 1.32622e-05
5 *622:A1 7.05891e-06
6 *736:Q 0
7 *350:56 0.000405221
8 *350:41 0.000535704
9 *350:10 0.00235573
10 *350:4 0.000456137
11 out[10] *482:B 0
12 out[10] *622:A2 0
13 out[10] *365:79 0
14 out[10] *369:23 0
15 out[10] *369:48 0
16 out[10] *374:155 0
17 out[10] *375:15 0
18 out[10] *375:42 0
19 out[10] *381:111 0
20 *621:A *381:107 0
21 *625:A *650:A1 0
22 *625:A *381:107 0
23 *350:10 *736:RESET_B 0
24 *350:10 *737:CLK 0
25 *350:10 *737:RESET_B 0
26 *350:10 *383:21 0
27 *350:41 *651:A1 0
28 *350:56 out[12] 0
29 *350:56 *351:8 0
30 *350:56 *351:14 0
31 *350:56 *351:21 0
32 *350:56 *381:103 0
33 *406:A out[10] 0
34 *531:C out[10] 0
35 *590:B out[10] 0
36 *591:C out[10] 0
37 *622:B1 *350:10 0
38 *622:B1 *350:41 0
39 *622:B1 *350:56 0
40 *623:B1 *350:10 0
41 *624:B1 out[10] 0
42 *625:B *621:A 0
43 *625:B *625:A 0
44 *651:B1 *651:A2 0
45 *651:B1 *350:41 0
46 *651:B1 *350:56 0
47 *736:D *350:10 0
48 *737:D *350:10 0
49 *737:D *350:41 0
50 *29:10 out[10] 0
51 *47:10 out[10] 0
52 *78:10 out[10] 0
53 *94:10 out[10] 0
54 *121:12 out[10] 0
55 *144:14 out[10] 0
56 *146:16 out[10] 0
57 *213:10 *350:56 0
58 *341:42 out[10] 0
59 *341:42 *350:10 0
60 *341:57 out[10] 0
61 *345:38 out[10] 0
62 *345:50 out[10] 0
*RES
1 *736:Q *350:4 9.3 
2 *350:4 *350:10 9.96428 
3 *350:10 out[10] 48.4464 
4 *350:10 *622:A1 13.9786 
5 *350:4 *350:41 4.33928 
6 *350:41 *651:A2 9.72857 
7 *350:41 *350:56 16.0536 
8 *350:56 *621:A 10.2464 
9 *350:56 *625:A 10.2464 
*END

*D_NET *351 0.00618386
*CONN
*P out[11] O
*I *673:A2 I *D sky130_fd_sc_hd__a21o_1
*I *652:A I *D sky130_fd_sc_hd__maj3_1
*I *647:A I *D sky130_fd_sc_hd__xor2_1
*I *649:A1 I *D sky130_fd_sc_hd__o21ai_0
*I *737:Q O *D sky130_fd_sc_hd__dfrtp_1
*CAP
1 out[11] 0.0016582
2 *673:A2 0.000176576
3 *652:A 0
4 *647:A 0.000210551
5 *649:A1 0
6 *737:Q 0
7 *351:56 0.00233905
8 *351:21 0.000336553
9 *351:14 0.000290886
10 *351:8 0.000416327
11 *351:4 0.000755721
12 out[11] out[3] 0
13 out[11] *391:A 0
14 out[11] *360:66 0
15 out[11] *385:47 0
16 *647:A *381:103 0
17 *673:A2 out[12] 0
18 *673:A2 *381:99 0
19 *351:8 *369:13 0
20 *351:14 out[12] 0
21 *351:14 *381:99 0
22 *351:56 *669:A 0
23 *351:56 *678:B 0
24 *351:56 *369:13 0
25 *622:B1 *351:14 0
26 *622:B1 *351:21 0
27 *625:C *647:A 0
28 *648:A *351:56 0
29 *650:A2 *647:A 0
30 *650:A2 *351:21 0
31 *650:B1 *647:A 0
32 *652:C *647:A 0
33 *668:B *351:56 0
34 *669:B *351:56 0
35 *678:A *351:56 0
36 *679:B out[11] 0
37 *680:B2 *351:56 0
38 *681:B out[11] 0
39 *685:B out[11] 0
40 *705:A out[11] 0
41 *705:B out[11] 0
42 *207:23 *647:A 0
43 *213:10 *647:A 0
44 *239:12 *351:56 0
45 *245:18 *351:56 0
46 *255:12 *351:56 0
47 *277:10 out[11] 0
48 *281:12 out[11] 0
49 *310:22 *647:A 0
50 *310:22 *673:A2 0
51 *347:99 out[11] 0
52 *347:99 *351:56 0
53 *350:56 *351:8 0
54 *350:56 *351:14 0
55 *350:56 *351:21 0
*RES
1 *737:Q *351:4 9.3 
2 *351:4 *351:8 6.26786 
3 *351:8 *351:14 8.19643 
4 *351:14 *649:A1 9.3 
5 *351:14 *351:21 3 
6 *351:21 *647:A 22.925 
7 *351:21 *652:A 9.3 
8 *351:8 *673:A2 17.8714 
9 *351:4 *351:56 19.5536 
10 *351:56 out[11] 38.5357 
*END

*D_NET *352 0.00772608
*CONN
*P out[12] O
*I *690:A2 I *D sky130_fd_sc_hd__a21o_1
*I *674:A I *D sky130_fd_sc_hd__maj3_1
*I *669:A I *D sky130_fd_sc_hd__xor2_1
*I *671:A1 I *D sky130_fd_sc_hd__o21ai_0
*I *738:Q O *D sky130_fd_sc_hd__dfrtp_1
*CAP
1 out[12] 0.00316996
2 *690:A2 0.000192516
3 *674:A 0
4 *669:A 0.000184564
5 *671:A1 6.7838e-06
6 *738:Q 0
7 *352:37 0.00036125
8 *352:10 0.00319955
9 *352:8 0.000309217
10 *352:4 0.000302237
11 out[12] *499:A1 0
12 out[12] *365:79 0
13 out[12] *381:153 0
14 out[12] *382:76 0
15 out[12] *383:9 0
16 out[12] *383:178 0
17 out[12] *383:221 0
18 out[12] *383:232 0
19 out[12] *383:243 0
20 *669:A *369:13 0
21 *352:8 *383:243 0
22 *352:10 *383:243 0
23 *352:37 *672:A1 0
24 *352:37 *369:13 0
25 *592:B1 out[12] 0
26 *595:B out[12] 0
27 *621:C out[12] 0
28 *622:B1 out[12] 0
29 *670:B *669:A 0
30 *672:A2 *352:37 0
31 *673:A2 out[12] 0
32 *673:B1 *352:37 0
33 *690:B1 *690:A2 0
34 *239:12 *669:A 0
35 *310:18 *669:A 0
36 *310:18 *671:A1 0
37 *310:18 *352:8 0
38 *310:18 *352:10 0
39 *310:22 out[12] 0
40 *310:22 *669:A 0
41 *310:97 out[12] 0
42 *350:56 out[12] 0
43 *351:14 out[12] 0
44 *351:56 *669:A 0
*RES
1 *738:Q *352:4 9.3 
2 *352:4 *352:8 7.05357 
3 *352:8 *352:10 0.580357 
4 *352:10 out[12] 30.8471 
5 *352:10 *671:A1 14.0768 
6 *352:8 *352:37 8.32143 
7 *352:37 *669:A 22.4071 
8 *352:37 *674:A 9.3 
9 *352:4 *690:A2 13.7821 
*END

*D_NET *353 0.0042111
*CONN
*P out[13] O
*I *691:A I *D sky130_fd_sc_hd__maj3_1
*I *686:A I *D sky130_fd_sc_hd__xor2_1
*I *688:A1 I *D sky130_fd_sc_hd__o21ai_0
*I *703:A2 I *D sky130_fd_sc_hd__a21o_1
*I *739:Q O *D sky130_fd_sc_hd__dfrtp_1
*CAP
1 out[13] 0.00139013
2 *691:A 0
3 *686:A 8.57316e-05
4 *688:A1 3.33694e-05
5 *703:A2 0.000294284
6 *739:Q 0
7 *353:32 0.0015811
8 *353:28 0.000302036
9 *353:4 0.000524448
10 out[13] *360:64 0
11 *688:A1 *377:9 0
12 *703:A2 *360:64 0
13 *703:A2 *377:9 0
14 *703:A2 *383:254 0
15 *703:A2 *383:267 0
16 *703:A2 *383:282 0
17 *353:28 *688:A2 0
18 *353:28 *360:64 0
19 *353:28 *377:9 0
20 *353:32 *360:64 0
21 *687:B out[13] 0
22 *688:B1 *353:28 0
23 *689:A2 out[13] 0
24 *689:A2 *353:28 0
25 *689:A2 *353:32 0
26 *691:C *686:A 0
27 *260:10 *686:A 0
28 *310:10 *703:A2 0
29 *310:12 *703:A2 0
*RES
1 *739:Q *353:4 9.3 
2 *353:4 *703:A2 24.8357 
3 *353:4 *688:A1 10.2643 
4 *353:4 *353:28 4.23214 
5 *353:28 *353:32 2.19643 
6 *353:32 *686:A 20.2464 
7 *353:32 out[13] 15.6675 
8 *353:28 *691:A 9.3 
*END

*D_NET *354 0.00731476
*CONN
*P out[14] O
*I *699:A I *D sky130_fd_sc_hd__xor2_1
*I *704:A I *D sky130_fd_sc_hd__maj3_1
*I *701:A1 I *D sky130_fd_sc_hd__o21ai_0
*I *709:A2 I *D sky130_fd_sc_hd__a21o_1
*I *740:Q O *D sky130_fd_sc_hd__dfrtp_1
*CAP
1 out[14] 0.00113272
2 *699:A 0.000304603
3 *704:A 0
4 *701:A1 7.75958e-05
5 *709:A2 8.04288e-05
6 *740:Q 0.000115226
7 *354:66 0.000386315
8 *354:30 0.00293749
9 *354:12 0.00194269
10 *354:10 0.000337689
11 out[14] *709:A1 0
12 out[14] *355:22 0
13 out[14] *379:12 0
14 out[14] *379:79 0
15 out[14] *382:104 0
16 *701:A1 *383:267 0
17 *354:12 *701:A2 0
18 *354:30 out[16] 0
19 *354:30 out[3] 0
20 *354:30 *701:A2 0
21 *354:30 *361:18 0
22 *354:30 *380:36 0
23 *354:30 *382:104 0
24 *354:66 *701:A2 0
25 *354:66 *381:379 0
26 *702:A2 *699:A 0
27 *702:A2 *354:10 0
28 *702:A2 *354:66 0
29 *703:B1 *701:A1 0
30 *703:B1 *354:12 0
31 *703:B1 *354:30 0
32 *704:B *699:A 0
33 *704:C *699:A 0
34 *709:B1 *709:A2 0
35 *723:B1 *354:30 0
36 *728:D *354:30 0
37 *283:12 *699:A 0
38 *288:20 *699:A 0
39 *288:20 *701:A1 0
40 *288:20 *354:30 0
41 *288:20 *354:66 0
42 *289:20 *699:A 0
43 *289:20 *354:12 0
44 *289:20 *354:30 0
45 *289:20 *354:66 0
46 *310:10 *354:10 0
47 *342:15 *709:A2 0
*RES
1 *740:Q *354:10 20.8536 
2 *354:10 *354:12 3 
3 *354:12 *354:30 28.0277 
4 *354:30 out[14] 15.1443 
5 *354:30 *709:A2 15.4786 
6 *354:12 *701:A1 19.9786 
7 *354:10 *354:66 1.76786 
8 *354:66 *704:A 9.3 
9 *354:66 *699:A 15.925 
*END

*D_NET *355 0.00784584
*CONN
*P out[15] O
*I *711:A I *D sky130_fd_sc_hd__maj3_1
*I *706:A I *D sky130_fd_sc_hd__xnor3_1
*I *710:B I *D sky130_fd_sc_hd__nand2_1
*I *707:A1 I *D sky130_fd_sc_hd__o21ai_0
*I *741:Q O *D sky130_fd_sc_hd__dfrtp_1
*CAP
1 out[15] 0.000555682
2 *711:A 8.17123e-05
3 *706:A 0
4 *710:B 0.000219402
5 *707:A1 0
6 *741:Q 6.95684e-05
7 *355:58 0.000183104
8 *355:45 0.000539192
9 *355:22 0.00285464
10 *355:20 0.00236249
11 *355:16 0.000377803
12 *355:8 0.00060224
13 *710:B out[16] 0
14 *710:B out[8] 0
15 *710:B *710:A 0
16 *355:8 out[4] 0
17 *355:8 out[8] 0
18 *355:16 out[4] 0
19 *355:16 out[8] 0
20 *355:16 *707:A2 0
21 *355:16 *373:11 0
22 *355:20 *373:11 0
23 *355:22 *472:A1 0
24 *355:22 *498:A1 0
25 *355:22 *528:A1 0
26 *355:22 *363:20 0
27 *355:22 *371:13 0
28 *355:22 *371:30 0
29 *355:22 *379:20 0
30 *355:22 *379:90 0
31 *355:22 *381:174 0
32 *355:22 *381:195 0
33 *355:22 *381:223 0
34 *355:22 *382:104 0
35 out[14] *355:22 0
36 *444:A *355:22 0
37 *445:B *355:22 0
38 *446:C *355:22 0
39 *464:B *355:22 0
40 *465:B *355:22 0
41 *472:B1 *355:22 0
42 *494:A *355:22 0
43 *496:B *355:22 0
44 *706:B *711:A 0
45 *706:B *355:58 0
46 *706:C *355:45 0
47 *706:C *355:58 0
48 *707:B1 *355:16 0
49 *707:B1 *355:45 0
50 *708:A2 *355:16 0
51 *708:B1 *355:16 0
52 *709:B1 *355:16 0
53 *709:B1 *355:20 0
54 *730:D *355:22 0
55 *35:12 *355:22 0
56 *36:14 *355:22 0
57 *38:10 *355:22 0
58 *58:8 *355:22 0
59 *294:18 *711:A 0
60 *337:8 *355:22 0
61 *338:10 *355:22 0
62 *342:15 *711:A 0
63 *342:15 *355:45 0
64 *342:15 *355:58 0
*RES
1 *741:Q *355:8 15.4429 
2 *355:8 *355:16 11.3036 
3 *355:16 *355:20 5.85714 
4 *355:20 *355:22 52.0089 
5 *355:22 out[15] 12.6161 
6 *355:16 *707:A1 9.3 
7 *355:8 *355:45 9.30357 
8 *355:45 *710:B 23.2821 
9 *355:45 *355:58 2.17857 
10 *355:58 *706:A 9.3 
11 *355:58 *711:A 11.0679 
*END

*D_NET *356 0.0041394
*CONN
*P out[16] O
*I *718:B1 I *D sky130_fd_sc_hd__a32o_1
*I *717:A I *D sky130_fd_sc_hd__nand4_1
*I *713:A I *D sky130_fd_sc_hd__nand3_1
*I *712:B1 I *D sky130_fd_sc_hd__a21oi_1
*I *742:Q O *D sky130_fd_sc_hd__dfrtp_1
*CAP
1 out[16] 0.00137399
2 *718:B1 0.000192516
3 *717:A 0
4 *713:A 6.37989e-05
5 *712:B1 2.0535e-05
6 *742:Q 0
7 *356:18 0.00158993
8 *356:14 0.000394177
9 *356:10 0.000223459
10 *356:4 0.000281
11 out[16] *710:A 0
12 *713:A *357:32 0
13 *713:A *381:19 0
14 *718:B1 *718:B2 0
15 *718:B1 *719:B 0
16 *718:B1 *743:CLK 0
17 *356:10 *357:32 0
18 *356:14 *717:C 0
19 *356:14 *743:RESET_B 0
20 *356:14 *357:20 0
21 *356:14 *357:24 0
22 *356:18 *717:C 0
23 *356:18 *381:426 0
24 *710:B out[16] 0
25 *714:B *356:10 0
26 *715:B1 out[16] 0
27 *715:B1 *356:18 0
28 *716:B *713:A 0
29 *716:B *356:10 0
30 *716:B *356:14 0
31 *717:D *713:A 0
32 *717:D *356:14 0
33 *718:A2 *718:B1 0
34 *718:A3 *718:B1 0
35 *743:D *718:B1 0
36 *294:18 *712:B1 0
37 *294:18 *713:A 0
38 *294:18 *356:18 0
39 *299:6 *718:B1 0
40 *299:10 *718:B1 0
41 *342:15 out[16] 0
42 *342:15 *356:14 0
43 *342:15 *356:18 0
44 *345:11 *356:10 0
45 *354:30 out[16] 0
*RES
1 *742:Q *356:4 9.3 
2 *356:4 *356:10 10.9464 
3 *356:10 *356:14 2.91071 
4 *356:14 *356:18 4.14286 
5 *356:18 out[16] 17.4785 
6 *356:18 *712:B1 9.72857 
7 *356:14 *713:A 19.6929 
8 *356:10 *717:A 9.3 
9 *356:4 *718:B1 13.4696 
*END

*D_NET *357 0.00802477
*CONN
*P out[17] O
*I *719:B I *D sky130_fd_sc_hd__nand2_1
*I *716:A_N I *D sky130_fd_sc_hd__nand2b_1
*I *717:B I *D sky130_fd_sc_hd__nand4_1
*I *743:Q O *D sky130_fd_sc_hd__dfrtp_1
*CAP
1 out[17] 0.00138948
2 *719:B 4.62038e-05
3 *716:A_N 0
4 *717:B 5.51636e-05
5 *743:Q 0.000234642
6 *357:32 0.00334821
7 *357:24 0.00205625
8 *357:20 0.000328168
9 *357:12 0.000566661
10 *719:B *718:B2 0
11 *357:12 out[19] 0
12 *357:12 *743:CLK 0
13 *357:12 *383:158 0
14 *357:20 *383:158 0
15 *357:32 *390:A3 0
16 *357:32 *559:A 0
17 *357:32 *366:20 0
18 *357:32 *366:22 0
19 *357:32 *367:22 0
20 *357:32 *373:19 0
21 *357:32 *381:19 0
22 *357:32 *381:135 0
23 *357:32 *382:46 0
24 *357:32 *382:54 0
25 *357:32 *383:122 0
26 out[0] *357:32 0
27 *390:A2 *357:32 0
28 *401:A2 *357:32 0
29 *426:B1 *357:32 0
30 *428:B1 *357:32 0
31 *564:C *357:32 0
32 *713:A *357:32 0
33 *714:A *357:12 0
34 *714:A *357:20 0
35 *716:B *717:B 0
36 *716:B *357:20 0
37 *716:B *357:24 0
38 *716:B *357:32 0
39 *717:D *357:20 0
40 *717:D *357:32 0
41 *718:A2 *719:B 0
42 *718:A3 *719:B 0
43 *718:B1 *719:B 0
44 *722:A1 *357:12 0
45 *724:A3 *719:B 0
46 *725:B2 *357:12 0
47 *149:8 *357:32 0
48 *289:30 *357:32 0
49 *299:6 *357:20 0
50 *299:10 *719:B 0
51 *299:10 *357:20 0
52 *310:224 *357:20 0
53 *330:14 *357:32 0
54 *342:15 *357:20 0
55 *342:15 *357:24 0
56 *345:11 *357:32 0
57 *345:17 *357:32 0
58 *349:12 *357:32 0
59 *356:10 *357:32 0
60 *356:14 *357:20 0
61 *356:14 *357:24 0
*RES
1 *743:Q *357:12 18.9607 
2 *357:12 *357:20 10.5893 
3 *357:20 *357:24 5.44643 
4 *357:24 *357:32 47.7582 
5 *357:32 out[17] 5.03214 
6 *357:24 *717:B 15.0679 
7 *357:20 *716:A_N 9.3 
8 *357:12 *719:B 14.7643 
*END

*D_NET *358 0.00284436
*CONN
*P out[18] O
*I *386:A I *D sky130_fd_sc_hd__clkinv_1
*I *725:A2 I *D sky130_fd_sc_hd__a22o_1
*I *744:Q O *D sky130_fd_sc_hd__dfrtp_1
*CAP
1 out[18] 0.000755175
2 *386:A 0.000247259
3 *725:A2 0.000105242
4 *744:Q 0
5 *358:10 0.000667004
6 *358:4 0.00106968
7 out[18] *391:B 0
8 out[18] *725:A1 0
9 out[18] *359:72 0
10 out[18] *385:43 0
11 *386:A *725:A1 0
12 *386:A *382:15 0
13 *386:A *385:6 0
14 *725:A2 *725:A1 0
15 *725:A2 *745:CLK 0
16 *358:10 *725:A1 0
17 *358:10 *744:RESET_B 0
18 *358:10 *359:72 0
19 *358:10 *382:15 0
20 *745:D *358:10 0
21 *305:10 *386:A 0
22 *310:10 out[18] 0
*RES
1 *744:Q *358:4 9.3 
2 *358:4 *358:10 11.1964 
3 *358:10 *725:A2 15.9964 
4 *358:10 *386:A 19.175 
5 *358:4 out[18] 21.125 
*END

*D_NET *359 0.0069688
*CONN
*P out[1] O
*I *413:A2 I *D sky130_fd_sc_hd__a21o_1
*I *402:A I *D sky130_fd_sc_hd__maj3_1
*I *397:A I *D sky130_fd_sc_hd__xor2_1
*I *399:A1 I *D sky130_fd_sc_hd__o21ai_0
*I *727:Q O *D sky130_fd_sc_hd__dfrtp_1
*CAP
1 out[1] 0.000464052
2 *413:A2 0
3 *402:A 0
4 *397:A 0.000170283
5 *399:A1 1.75403e-05
6 *727:Q 4.62038e-05
7 *359:72 0.0024887
8 *359:55 0.00266099
9 *359:21 0.000253262
10 *359:17 0.000761674
11 *359:8 0.000106098
12 *397:A *381:66 0
13 *399:A1 *399:A2 0
14 *359:8 *399:A2 0
15 *359:17 *399:A2 0
16 *359:21 *381:66 0
17 *359:55 *409:A 0
18 *359:55 *360:16 0
19 *359:55 *360:18 0
20 *359:55 *360:20 0
21 *359:55 *380:46 0
22 *359:72 *391:A 0
23 *359:72 *745:RESET_B 0
24 *359:72 *360:12 0
25 *359:72 *382:15 0
26 *359:72 *382:19 0
27 *359:72 *382:200 0
28 *359:72 *385:43 0
29 out[18] *359:72 0
30 *397:B *397:A 0
31 *398:B *359:8 0
32 *398:B *359:17 0
33 *398:B *359:55 0
34 *400:A2 *397:A 0
35 *400:B1 *397:A 0
36 *400:B1 *359:21 0
37 *402:C *397:A 0
38 *409:B *359:55 0
39 *410:A *359:55 0
40 *410:B *359:55 0
41 *412:A2 *359:55 0
42 *412:A2 *359:72 0
43 *412:B1 *359:55 0
44 *412:B1 *359:72 0
45 *414:B *359:21 0
46 *740:D *359:72 0
47 *310:276 *359:72 0
48 *330:14 *359:17 0
49 *330:14 *359:55 0
50 *341:15 *359:72 0
51 *358:10 *359:72 0
*RES
1 *727:Q *359:8 10.2643 
2 *359:8 *399:A1 9.72857 
3 *359:8 *359:17 0.946428 
4 *359:17 *359:21 6.44643 
5 *359:21 *397:A 17.7286 
6 *359:21 *402:A 13.8 
7 *359:17 *359:55 18.4107 
8 *359:55 *413:A2 13.8 
9 *359:55 *359:72 47.875 
10 *359:72 out[1] 15.0357 
*END

*D_NET *360 0.0108235
*CONN
*P out[2] O
*I *409:A I *D sky130_fd_sc_hd__xor2_1
*I *411:A1 I *D sky130_fd_sc_hd__o21ai_0
*I *414:A I *D sky130_fd_sc_hd__maj3_1
*I *428:A2 I *D sky130_fd_sc_hd__a21o_1
*I *728:Q O *D sky130_fd_sc_hd__dfrtp_1
*CAP
1 out[2] 0.000898922
2 *409:A 3.50807e-05
3 *411:A1 8.57316e-05
4 *414:A 0
5 *428:A2 0.000400478
6 *728:Q 0.000347014
7 *360:66 0.00300245
8 *360:64 0.00325777
9 *360:20 0.000504865
10 *360:18 0.00027183
11 *360:16 0.000317437
12 *360:12 0.0017019
13 *428:A2 *729:CLK 0
14 *428:A2 *380:10 0
15 *428:A2 *380:25 0
16 *428:A2 *383:158 0
17 *360:12 out[3] 0
18 *360:12 *412:A1 0
19 *360:12 *380:46 0
20 *360:12 *381:349 0
21 *360:12 *382:200 0
22 *360:12 *382:204 0
23 *360:64 *377:9 0
24 *360:66 out[7] 0
25 *360:66 *678:B 0
26 *360:66 *680:B1 0
27 *360:66 *369:97 0
28 *360:66 *374:9 0
29 *360:66 *374:34 0
30 *360:66 *375:105 0
31 *360:66 *385:47 0
32 out[11] *360:66 0
33 out[13] *360:64 0
34 *399:B1 *428:A2 0
35 *409:B *409:A 0
36 *409:B *360:18 0
37 *409:B *360:20 0
38 *412:A2 *411:A1 0
39 *541:C *360:66 0
40 *626:B *360:66 0
41 *640:B *360:66 0
42 *641:B *360:66 0
43 *654:B *360:66 0
44 *681:B *360:66 0
45 *685:B *360:64 0
46 *687:B *360:64 0
47 *689:A2 *360:64 0
48 *690:B1 *360:64 0
49 *692:B *360:64 0
50 *696:A *360:64 0
51 *703:A2 *360:64 0
52 *705:A *360:66 0
53 *739:D *360:64 0
54 *96:14 *360:66 0
55 *132:8 *360:66 0
56 *132:23 *360:66 0
57 *168:22 *360:66 0
58 *187:10 *360:66 0
59 *214:12 *360:66 0
60 *265:14 *360:66 0
61 *269:10 *360:64 0
62 *271:14 *360:64 0
63 *278:22 *360:66 0
64 *288:20 *428:A2 0
65 *289:20 *360:12 0
66 *310:59 *360:16 0
67 *310:59 *360:64 0
68 *310:63 *360:16 0
69 *310:63 *360:18 0
70 *310:276 *411:A1 0
71 *330:14 *360:18 0
72 *330:14 *360:20 0
73 *342:17 *411:A1 0
74 *342:17 *428:A2 0
75 *344:50 *360:66 0
76 *347:16 *360:66 0
77 *347:27 *360:66 0
78 *347:48 *360:66 0
79 *347:99 *360:66 0
80 *353:28 *360:64 0
81 *353:32 *360:64 0
82 *359:55 *409:A 0
83 *359:55 *360:16 0
84 *359:55 *360:18 0
85 *359:55 *360:20 0
86 *359:72 *360:12 0
*RES
1 *728:Q *360:12 25.9607 
2 *360:12 *360:16 4.25 
3 *360:16 *360:18 1.76786 
4 *360:18 *360:20 2.17857 
5 *360:20 *428:A2 27.175 
6 *360:20 *414:A 9.3 
7 *360:18 *411:A1 20.2464 
8 *360:16 *409:A 10.0321 
9 *360:12 *360:64 28.5893 
10 *360:64 *360:66 47.6339 
11 *360:66 out[2] 6.66554 
*END

*D_NET *361 0.00816537
*CONN
*P out[3] O
*I *426:A1 I *D sky130_fd_sc_hd__o21ai_0
*I *424:A I *D sky130_fd_sc_hd__xor2_1
*I *429:A I *D sky130_fd_sc_hd__maj3_1
*I *449:A2 I *D sky130_fd_sc_hd__a21o_1
*I *729:Q O *D sky130_fd_sc_hd__dfrtp_1
*CAP
1 out[3] 0.00263334
2 *426:A1 2.26741e-05
3 *424:A 0
4 *429:A 0
5 *449:A2 0.000235887
6 *729:Q 0
7 *361:36 0.00046674
8 *361:28 0.000576392
9 *361:18 0.000982608
10 *361:4 0.00324773
11 out[3] *413:A1 0
12 out[3] *377:9 0
13 out[3] *381:355 0
14 out[3] *383:267 0
15 out[3] *385:47 0
16 *426:A1 *426:A2 0
17 *426:A1 *383:143 0
18 *449:A2 *449:A1 0
19 *449:A2 *727:CLK 0
20 *449:A2 *747:A 0
21 *449:A2 *362:31 0
22 *449:A2 *383:79 0
23 *449:A2 *383:81 0
24 *361:18 *383:122 0
25 *361:28 *426:A2 0
26 *361:28 *710:A 0
27 *361:28 *747:A 0
28 *361:28 *373:19 0
29 *361:28 *381:21 0
30 *361:28 *381:41 0
31 *361:28 *383:122 0
32 *361:36 *747:A 0
33 *361:36 *383:79 0
34 out[11] out[3] 0
35 *412:A2 out[3] 0
36 *413:B1 out[3] 0
37 *425:B *361:28 0
38 *429:B *361:36 0
39 *698:A out[3] 0
40 *700:A out[3] 0
41 *700:B out[3] 0
42 *707:B1 *361:28 0
43 *707:B1 *361:36 0
44 *276:12 out[3] 0
45 *289:20 out[3] 0
46 *289:20 *361:18 0
47 *310:79 *361:36 0
48 *354:30 out[3] 0
49 *354:30 *361:18 0
50 *360:12 out[3] 0
*RES
1 *729:Q *361:4 9.3 
2 *361:4 *361:18 18.5105 
3 *361:18 *361:28 16.3214 
4 *361:28 *361:36 13.9464 
5 *361:36 *449:A2 23.2821 
6 *361:36 *429:A 9.3 
7 *361:28 *424:A 9.3 
8 *361:18 *426:A1 9.83571 
9 *361:4 out[3] 46.677 
*END

*D_NET *362 0.0051593
*CONN
*P out[4] O
*I *446:A I *D sky130_fd_sc_hd__xnor3_1
*I *447:A1 I *D sky130_fd_sc_hd__o21ai_0
*I *472:A2 I *D sky130_fd_sc_hd__a21o_1
*I *450:A I *D sky130_fd_sc_hd__maj3_1
*I *730:Q O *D sky130_fd_sc_hd__dfrtp_1
*CAP
1 out[4] 0.00143344
2 *446:A 0.000121071
3 *447:A1 0.000231188
4 *472:A2 4.53482e-05
5 *450:A 0.000236118
6 *730:Q 0
7 *362:31 0.000542839
8 *362:21 0.000387374
9 *362:8 0.000482302
10 *362:6 0.00167962
11 out[4] out[19] 0
12 out[4] out[8] 0
13 out[4] *708:A1 0
14 out[4] *709:A1 0
15 *446:A *727:CLK 0
16 *447:A1 *447:A2 0
17 *447:A1 *730:CLK 0
18 *447:A1 *730:RESET_B 0
19 *447:A1 *381:223 0
20 *450:A *379:12 0
21 *472:A2 *472:A1 0
22 *362:8 out[8] 0
23 *362:8 *709:A1 0
24 *362:8 *747:A 0
25 *362:8 *379:12 0
26 *362:8 *379:79 0
27 *362:31 *472:A1 0
28 *362:31 *727:CLK 0
29 *362:31 *747:A 0
30 *362:31 *379:6 0
31 *362:31 *383:81 0
32 *424:B *362:8 0
33 *429:C *446:A 0
34 *447:B1 *447:A1 0
35 *448:A2 *447:A1 0
36 *448:A2 *362:31 0
37 *448:B1 *447:A1 0
38 *449:A2 *362:31 0
39 *449:B1 *447:A1 0
40 *450:B *446:A 0
41 *450:B *450:A 0
42 *472:B1 *447:A1 0
43 *472:B1 *472:A2 0
44 *472:B1 *362:31 0
45 *714:A out[4] 0
46 *714:B out[4] 0
47 *715:A1 out[4] 0
48 *730:D *447:A1 0
49 *742:D out[4] 0
50 *24:10 *446:A 0
51 *44:14 *450:A 0
52 *339:10 *450:A 0
53 *339:10 *362:8 0
54 *342:15 out[4] 0
55 *355:8 out[4] 0
56 *355:16 out[4] 0
*RES
1 *730:Q *362:6 13.8 
2 *362:6 *362:8 5.58928 
3 *362:8 *450:A 19.1571 
4 *362:8 *362:21 4.5 
5 *362:21 *362:31 7.39286 
6 *362:31 *472:A2 10.2464 
7 *362:31 *447:A1 23.4071 
8 *362:21 *446:A 11.8893 
9 *362:6 out[4] 40.7679 
*END

*D_NET *363 0.00676168
*CONN
*P out[5] O
*I *470:A1 I *D sky130_fd_sc_hd__o21ai_0
*I *468:A I *D sky130_fd_sc_hd__xor2_1
*I *473:A I *D sky130_fd_sc_hd__maj3_1
*I *499:A2 I *D sky130_fd_sc_hd__a21o_1
*I *731:Q O *D sky130_fd_sc_hd__dfrtp_1
*CAP
1 out[5] 0.000798326
2 *470:A1 0.000155756
3 *468:A 0
4 *473:A 0.000177328
5 *499:A2 0
6 *731:Q 0.000357736
7 *363:48 0.000227414
8 *363:35 0.000248987
9 *363:20 0.00242842
10 *363:12 0.00182004
11 *363:10 0.000547682
12 *363:10 *382:85 0
13 *363:12 *497:A1 0
14 *363:12 *497:A2 0
15 *363:12 *381:174 0
16 *363:20 out[6] 0
17 *363:20 *497:A1 0
18 *363:20 *499:A1 0
19 *363:20 *371:13 0
20 *440:A *363:20 0
21 *445:B *363:20 0
22 *447:B1 *363:10 0
23 *466:A *363:20 0
24 *467:B *363:20 0
25 *468:B *473:A 0
26 *468:B *363:48 0
27 *469:B *470:A1 0
28 *469:B *363:10 0
29 *469:B *363:48 0
30 *471:A2 *470:A1 0
31 *472:B1 *363:10 0
32 *473:B *473:A 0
33 *496:B *363:20 0
34 *497:B1 *363:12 0
35 *498:B1 *363:20 0
36 *36:14 *363:20 0
37 *38:10 *363:20 0
38 *44:14 *470:A1 0
39 *44:14 *363:10 0
40 *59:8 *363:20 0
41 *61:12 *363:20 0
42 *66:10 *363:10 0
43 *66:10 *363:12 0
44 *66:10 *363:20 0
45 *87:10 *363:20 0
46 *310:159 *470:A1 0
47 *310:159 *363:10 0
48 *310:159 *363:12 0
49 *355:22 *363:20 0
*RES
1 *731:Q *363:10 21.7821 
2 *363:10 *363:12 4.375 
3 *363:12 *363:20 45.1071 
4 *363:20 out[5] 18.125 
5 *363:12 *499:A2 13.8 
6 *363:10 *363:35 4.5 
7 *363:35 *473:A 13.0321 
8 *363:35 *363:48 1.67857 
9 *363:48 *468:A 9.3 
10 *363:48 *470:A1 22.3357 
*END

*D_NET *364 0.00414193
*CONN
*P out[6] O
*I *528:A2 I *D sky130_fd_sc_hd__a21o_1
*I *497:A1 I *D sky130_fd_sc_hd__o21ai_0
*I *500:A I *D sky130_fd_sc_hd__maj3_1
*I *495:A I *D sky130_fd_sc_hd__xor2_1
*I *732:Q O *D sky130_fd_sc_hd__dfrtp_1
*CAP
1 out[6] 0.00118935
2 *528:A2 0.000141606
3 *497:A1 0.000187297
4 *500:A 1.28344e-05
5 *495:A 2.24709e-05
6 *732:Q 0
7 *364:18 0.00131088
8 *364:16 0.000410455
9 *364:10 0.000605642
10 *364:4 0.000261394
11 *497:A1 *497:A2 0
12 *497:A1 *379:26 0
13 *364:16 *499:A1 0
14 *467:B out[6] 0
15 *498:B1 *497:A1 0
16 *498:B1 *364:10 0
17 *499:B1 *497:A1 0
18 *499:B1 *364:10 0
19 *499:B1 *364:16 0
20 *500:B *364:16 0
21 *500:C out[6] 0
22 *500:C *364:16 0
23 *500:C *364:18 0
24 *528:B1 *528:A2 0
25 *732:D *364:16 0
26 *59:8 out[6] 0
27 *61:12 *364:16 0
28 *61:12 *364:18 0
29 *87:10 out[6] 0
30 *92:8 *528:A2 0
31 *92:8 *364:10 0
32 *92:8 *364:16 0
33 *363:12 *497:A1 0
34 *363:20 out[6] 0
35 *363:20 *497:A1 0
*RES
1 *732:Q *364:4 9.3 
2 *364:4 *364:10 2.625 
3 *364:10 *364:16 11.0893 
4 *364:16 *364:18 2.25 
5 *364:18 out[6] 24.0244 
6 *364:18 *495:A 14.3357 
7 *364:16 *500:A 14.3357 
8 *364:10 *497:A1 22.4071 
9 *364:4 *528:A2 12.3179 
*END

*D_NET *365 0.00781834
*CONN
*P out[7] O
*I *563:A2 I *D sky130_fd_sc_hd__a21o_1
*I *529:A I *D sky130_fd_sc_hd__maj3_1
*I *524:A I *D sky130_fd_sc_hd__xor2_1
*I *526:A1 I *D sky130_fd_sc_hd__o21ai_0
*I *733:Q O *D sky130_fd_sc_hd__dfrtp_1
*CAP
1 out[7] 0.00209796
2 *563:A2 2.81287e-05
3 *529:A 2.56688e-05
4 *524:A 0.000173223
5 *526:A1 0.000105124
6 *733:Q 0
7 *365:79 0.00303237
8 *365:55 0.00132896
9 *365:23 0.000268499
10 *365:10 0.00028336
11 *365:4 0.00047505
12 *526:A1 *381:155 0
13 *526:A1 *381:163 0
14 *365:10 *381:153 0
15 *365:10 *382:156 0
16 *365:55 *735:RESET_B 0
17 *365:55 *382:156 0
18 *365:79 *564:A 0
19 *365:79 *594:A2 0
20 *365:79 *595:A 0
21 *365:79 *367:34 0
22 *365:79 *381:119 0
23 *365:79 *381:123 0
24 *365:79 *381:135 0
25 out[10] *365:79 0
26 out[12] *365:79 0
27 *524:B *524:A 0
28 *525:B *524:A 0
29 *526:B1 *529:A 0
30 *526:B1 *365:55 0
31 *527:A2 *529:A 0
32 *527:A2 *365:23 0
33 *528:B1 *526:A1 0
34 *528:B1 *529:A 0
35 *529:B *524:A 0
36 *529:C *524:A 0
37 *562:A2 *365:79 0
38 *563:B1 *365:55 0
39 *591:C out[7] 0
40 *592:B1 *365:79 0
41 *594:B1 *365:79 0
42 *595:B out[7] 0
43 *616:SLEEP out[7] 0
44 *617:A out[7] 0
45 *617:B out[7] 0
46 *620:A out[7] 0
47 *620:SLEEP out[7] 0
48 *621:C out[7] 0
49 *623:A2 out[7] 0
50 *624:B1 *365:79 0
51 *625:C out[7] 0
52 *626:B out[7] 0
53 *626:C out[7] 0
54 *633:A out[7] 0
55 *644:A2 out[7] 0
56 *653:A out[7] 0
57 *734:D *365:55 0
58 *120:8 *365:55 0
59 *154:10 *365:79 0
60 *180:12 out[7] 0
61 *184:16 out[7] 0
62 *184:16 *365:79 0
63 *204:6 out[7] 0
64 *205:12 out[7] 0
65 *206:10 out[7] 0
66 *207:23 out[7] 0
67 *214:12 out[7] 0
68 *215:22 out[7] 0
69 *216:14 out[7] 0
70 *231:10 out[7] 0
71 *232:12 out[7] 0
72 *310:85 *365:10 0
73 *310:97 *365:79 0
74 *337:8 *524:A 0
75 *337:8 *365:10 0
76 *337:8 *365:23 0
77 *360:66 out[7] 0
*RES
1 *733:Q *365:4 9.3 
2 *365:4 *365:10 6.98214 
3 *365:10 *526:A1 16.1036 
4 *365:10 *365:23 1.64286 
5 *365:23 *524:A 17.6214 
6 *365:23 *529:A 14.3357 
7 *365:4 *365:55 7.86607 
8 *365:55 *365:79 43.0213 
9 *365:79 out[7] 37.3154 
10 *365:55 *563:A2 9.9875 
*END

*D_NET *366 0.00589308
*CONN
*P out[8] O
*I *594:A2 I *D sky130_fd_sc_hd__a21o_1
*I *561:A1 I *D sky130_fd_sc_hd__o21ai_0
*I *564:A I *D sky130_fd_sc_hd__maj3_1
*I *559:A I *D sky130_fd_sc_hd__xnor2_1
*I *734:Q O *D sky130_fd_sc_hd__dfrtp_1
*CAP
1 out[8] 0.00172906
2 *594:A2 0.000278934
3 *561:A1 0
4 *564:A 6.58832e-05
5 *559:A 0.000211407
6 *734:Q 0.000101392
7 *366:48 0.000278934
8 *366:22 0.000360171
9 *366:20 0.000219323
10 *366:10 0.0020696
11 *366:6 0.000578374
12 out[8] *710:A 0
13 out[8] *381:13 0
14 out[8] *381:15 0
15 out[8] *381:19 0
16 out[8] *382:64 0
17 *559:A *381:135 0
18 *594:A2 *383:39 0
19 *594:A2 *383:41 0
20 *366:6 *735:RESET_B 0
21 *366:10 *734:CLK 0
22 *366:10 *734:RESET_B 0
23 *366:10 *735:RESET_B 0
24 *366:10 *382:156 0
25 *366:22 *381:135 0
26 out[0] *559:A 0
27 out[0] *366:20 0
28 out[4] out[8] 0
29 *424:B out[8] 0
30 *450:B out[8] 0
31 *559:B *559:A 0
32 *560:B *559:A 0
33 *562:A2 *564:A 0
34 *562:A2 *366:22 0
35 *562:B1 *594:A2 0
36 *564:B *564:A 0
37 *592:B1 *594:A2 0
38 *593:B1 *594:A2 0
39 *594:B1 *594:A2 0
40 *707:B1 out[8] 0
41 *710:B out[8] 0
42 *715:A1 out[8] 0
43 *726:D out[8] 0
44 *735:D *594:A2 0
45 *310:79 out[8] 0
46 *310:81 out[8] 0
47 *310:85 out[8] 0
48 *324:10 *366:6 0
49 *324:10 *366:10 0
50 *339:10 out[8] 0
51 *355:8 out[8] 0
52 *355:16 out[8] 0
53 *357:32 *559:A 0
54 *357:32 *366:20 0
55 *357:32 *366:22 0
56 *362:8 out[8] 0
57 *365:79 *564:A 0
58 *365:79 *594:A2 0
*RES
1 *734:Q *366:6 11.4786 
2 *366:6 *366:10 11.6071 
3 *366:10 out[8] 39.0714 
4 *366:6 *366:20 7.66071 
5 *366:20 *366:22 1.94643 
6 *366:22 *559:A 18.4429 
7 *366:22 *564:A 15.175 
8 *366:20 *366:48 4.5 
9 *366:48 *561:A1 9.3 
10 *366:48 *594:A2 15.3357 
*END

*D_NET *367 0.00820275
*CONN
*P out[9] O
*I *624:A2 I *D sky130_fd_sc_hd__a21o_1
*I *592:A1 I *D sky130_fd_sc_hd__o21ai_0
*I *595:A I *D sky130_fd_sc_hd__maj3_1
*I *591:A I *D sky130_fd_sc_hd__xnor3_1
*I *735:Q O *D sky130_fd_sc_hd__dfrtp_1
*CAP
1 out[9] 0.00132978
2 *624:A2 0.000178826
3 *592:A1 8.77017e-05
4 *595:A 0.000131339
5 *591:A 0
6 *735:Q 0
7 *367:34 0.000334122
8 *367:22 0.00316985
9 *367:12 0.00216593
10 *367:10 0.000418572
11 *367:4 0.000386624
12 *592:A1 *381:119 0
13 *592:A1 *381:123 0
14 *592:A1 *383:39 0
15 *624:A2 *622:A2 0
16 *624:A2 *380:56 0
17 *624:A2 *383:21 0
18 *624:A2 *383:39 0
19 *367:10 *735:CLK 0
20 *367:10 *369:21 0
21 *367:10 *380:56 0
22 *367:10 *383:39 0
23 *367:12 *369:21 0
24 *367:22 *369:21 0
25 out[0] *367:22 0
26 *415:A *367:22 0
27 *557:A1 *367:22 0
28 *558:A *367:22 0
29 *559:B *367:22 0
30 *591:C *595:A 0
31 *591:C *367:22 0
32 *591:C *367:34 0
33 *593:B1 *592:A1 0
34 *623:A2 *595:A 0
35 *623:B1 *595:A 0
36 *736:D *624:A2 0
37 *146:16 *367:22 0
38 *148:8 *367:22 0
39 *154:10 *595:A 0
40 *154:10 *367:34 0
41 *341:78 *367:22 0
42 *342:25 *367:10 0
43 *342:25 *367:12 0
44 *342:25 *367:22 0
45 *345:17 *367:22 0
46 *357:32 *367:22 0
47 *365:79 *595:A 0
48 *365:79 *367:34 0
*RES
1 *735:Q *367:4 9.3 
2 *367:4 *367:10 9.125 
3 *367:10 *367:12 2.85714 
4 *367:12 *367:22 49.9375 
5 *367:22 out[9] 8.22594 
6 *367:12 *367:34 8.73214 
7 *367:34 *591:A 9.3 
8 *367:34 *595:A 12.1036 
9 *367:10 *592:A1 15.5679 
10 *367:4 *624:A2 13.0321 
*END

*D_NET *368 0.0124049
*CONN
*P b[0] I
*I *506:B I *D sky130_fd_sc_hd__and2_0
*I *404:B I *D sky130_fd_sc_hd__nand2_1
*I *418:B I *D sky130_fd_sc_hd__and2_0
*I *395:B2 I *D sky130_fd_sc_hd__a22oi_1
*I *390:A3 I *D sky130_fd_sc_hd__a31o_1
*I *388:C I *D sky130_fd_sc_hd__and3_1
*I *394:D I *D sky130_fd_sc_hd__nand4_1
*I *433:B I *D sky130_fd_sc_hd__and2_0
*I *478:B I *D sky130_fd_sc_hd__nand2_1
*I *454:B I *D sky130_fd_sc_hd__and2_0
*CAP
1 b[0] 0.0004904
2 *506:B 0.000417964
3 *404:B 0
4 *418:B 0.000183104
5 *395:B2 0.000273682
6 *390:A3 0.00016798
7 *388:C 0.000110804
8 *394:D 4.53482e-05
9 *433:B 0.000774652
10 *478:B 0
11 *454:B 0.000313542
12 *368:146 0.000183104
13 *368:99 0.000533333
14 *368:91 0.000557725
15 *368:80 0.000963796
16 *368:76 0.00163399
17 *368:49 0.00278324
18 *368:37 0.00176449
19 *368:13 0.000473972
20 *368:9 0.000733809
21 *390:A3 *389:A 0
22 *390:A3 *390:A1 0
23 *394:D *735:CLK 0
24 *395:B2 *381:95 0
25 *433:B *419:A 0
26 *433:B *371:66 0
27 *433:B *372:15 0
28 *433:B *375:15 0
29 *454:B *369:97 0
30 *506:B *369:97 0
31 *506:B *372:32 0
32 *506:B *372:46 0
33 *368:49 *371:66 0
34 *368:49 *371:80 0
35 *368:49 *372:15 0
36 *368:76 *370:46 0
37 *368:76 *375:15 0
38 *368:80 *593:A1 0
39 *368:80 *381:135 0
40 *390:A2 *390:A3 0
41 *390:B1 *390:A3 0
42 *396:A *395:B2 0
43 *396:SLEEP *395:B2 0
44 *402:C *395:B2 0
45 *404:A *418:B 0
46 *404:A *368:76 0
47 *406:C *368:80 0
48 *407:A_N *394:D 0
49 *407:A_N *368:99 0
50 *408:B *395:B2 0
51 *418:A *418:B 0
52 *418:A *433:B 0
53 *433:A *433:B 0
54 *452:C *433:B 0
55 *454:A *454:B 0
56 *477:A *368:9 0
57 *478:A *454:B 0
58 *480:A *368:13 0
59 *480:C *368:13 0
60 *489:A *368:76 0
61 *504:B *454:B 0
62 *504:B *368:13 0
63 *504:C *454:B 0
64 *506:A *506:B 0
65 *507:C *506:B 0
66 *512:A *368:49 0
67 *512:C *368:49 0
68 *533:C *506:B 0
69 *533:C *368:49 0
70 *546:A *506:B 0
71 *557:A2 *368:80 0
72 *27:14 *433:B 0
73 *46:14 *433:B 0
74 *48:10 *454:B 0
75 *50:14 *433:B 0
76 *52:12 *368:76 0
77 *70:10 *368:9 0
78 *71:10 *454:B 0
79 *96:14 *454:B 0
80 *96:14 *506:B 0
81 *96:14 *368:13 0
82 *104:14 *368:49 0
83 *110:14 *418:B 0
84 *111:12 *368:80 0
85 *124:10 *506:B 0
86 *307:10 *395:B2 0
87 *312:25 *395:B2 0
88 *314:10 *395:B2 0
89 *323:8 *368:80 0
90 *324:10 *388:C 0
91 *324:10 *394:D 0
92 *324:10 *368:99 0
93 *325:12 *395:B2 0
94 *332:14 *418:B 0
95 *334:8 *368:80 0
96 *335:10 *433:B 0
97 *341:15 *395:B2 0
98 *341:161 *388:C 0
99 *341:161 *368:99 0
100 *342:17 *395:B2 0
101 *342:19 *368:80 0
102 *342:25 *368:80 0
103 *342:31 *368:76 0
104 *342:35 *368:76 0
105 *342:41 *368:76 0
106 *343:36 *368:49 0
107 *343:53 *368:76 0
108 *343:70 *368:76 0
109 *343:98 *506:B 0
110 *343:98 *368:37 0
111 *343:98 *368:49 0
112 *344:50 *506:B 0
113 *344:50 *368:9 0
114 *344:50 *368:37 0
115 *344:71 *433:B 0
116 *345:17 *390:A3 0
117 *345:17 *368:80 0
118 *345:54 *368:9 0
119 *345:54 *368:37 0
120 *347:5 *454:B 0
121 *357:32 *390:A3 0
*RES
1 b[0] *368:9 11.1964 
2 *368:9 *368:13 7.91071 
3 *368:13 *454:B 25.0321 
4 *368:13 *478:B 9.3 
5 *368:9 *368:37 1.94643 
6 *368:37 *368:49 31.0893 
7 *368:49 *433:B 35.4071 
8 *368:49 *368:76 21.3214 
9 *368:76 *368:80 20.0893 
10 *368:80 *394:D 14.7464 
11 *368:80 *368:91 0.732143 
12 *368:91 *368:99 10 
13 *368:99 *388:C 11.8357 
14 *368:99 *390:A3 21.925 
15 *368:91 *395:B2 19.8 
16 *368:76 *368:146 4.5 
17 *368:146 *418:B 13.1214 
18 *368:146 *404:B 9.3 
19 *368:37 *506:B 22.8357 
*END

*D_NET *369 0.0154736
*CONN
*P b[1] I
*I *395:A2 I *D sky130_fd_sc_hd__a22oi_1
*I *394:B I *D sky130_fd_sc_hd__nand4_1
*I *393:A I *D sky130_fd_sc_hd__nand2_1
*I *535:A1 I *D sky130_fd_sc_hd__a22oi_1
*I *479:A I *D sky130_fd_sc_hd__and2_0
*I *455:A I *D sky130_fd_sc_hd__nand2_1
*I *434:A I *D sky130_fd_sc_hd__and2_0
*I *419:A I *D sky130_fd_sc_hd__and2_0
*I *405:A I *D sky130_fd_sc_hd__and2_0
*CAP
1 b[1] 0.00141335
2 *395:A2 0
3 *394:B 0.000142034
4 *393:A 0.000108237
5 *535:A1 0.000144209
6 *479:A 0
7 *455:A 3.22476e-05
8 *434:A 3.22476e-05
9 *419:A 0.000423107
10 *405:A 0.000397866
11 *369:97 0.000745422
12 *369:80 0.00180139
13 *369:50 0.000517388
14 *369:48 0.00221509
15 *369:23 0.00151159
16 *369:21 0.00110359
17 *369:19 0.00112682
18 *369:13 0.00123185
19 *369:7 0.00252716
20 *405:A *403:B 0
21 *405:A *417:B 0
22 *405:A *370:46 0
23 *434:A *370:46 0
24 *535:A1 *370:93 0
25 *535:A1 *370:106 0
26 *369:7 *385:47 0
27 *369:13 *672:A1 0
28 *369:13 *673:A1 0
29 *369:13 *737:CLK 0
30 *369:13 *381:95 0
31 *369:19 *380:48 0
32 *369:21 *380:48 0
33 *369:21 *380:56 0
34 *369:21 *383:39 0
35 *369:48 *370:46 0
36 *369:80 *482:B 0
37 *369:80 *370:13 0
38 *369:97 *372:46 0
39 out[10] *369:23 0
40 out[10] *369:48 0
41 *393:B *393:A 0
42 *394:A *394:B 0
43 *394:C *394:B 0
44 *405:B *405:A 0
45 *406:A *393:A 0
46 *406:B *369:21 0
47 *407:A_N *394:B 0
48 *416:A *393:A 0
49 *416:C *393:A 0
50 *432:A *419:A 0
51 *433:B *419:A 0
52 *452:C *419:A 0
53 *454:B *369:97 0
54 *455:B *369:80 0
55 *456:C *369:80 0
56 *506:A *535:A1 0
57 *506:A *369:97 0
58 *506:B *369:97 0
59 *667:B *369:7 0
60 *668:B *369:13 0
61 *669:A *369:13 0
62 *670:A *369:13 0
63 *670:B *369:7 0
64 *670:B *369:13 0
65 *672:A2 *369:13 0
66 *672:B1 *369:13 0
67 *674:B *369:13 0
68 *675:A *369:7 0
69 *675:A *369:13 0
70 *675:B *369:7 0
71 *685:A *369:7 0
72 *687:B *369:7 0
73 *700:B *369:7 0
74 *29:10 *369:48 0
75 *48:10 *369:80 0
76 *49:10 *369:97 0
77 *68:12 *369:48 0
78 *71:10 *369:97 0
79 *72:42 *535:A1 0
80 *75:10 *369:80 0
81 *78:10 *369:48 0
82 *81:12 *369:48 0
83 *82:10 *369:48 0
84 *94:10 *369:48 0
85 *96:14 *369:97 0
86 *109:10 *369:48 0
87 *245:18 *369:7 0
88 *255:12 *369:13 0
89 *261:8 *369:7 0
90 *271:14 *369:7 0
91 *276:12 *369:7 0
92 *283:12 *369:7 0
93 *320:10 *405:A 0
94 *320:10 *369:23 0
95 *322:6 *405:A 0
96 *332:14 *405:A 0
97 *333:10 *405:A 0
98 *341:15 *369:13 0
99 *341:19 *369:19 0
100 *341:23 *369:19 0
101 *341:23 *369:21 0
102 *341:42 *405:A 0
103 *341:42 *369:21 0
104 *341:42 *369:23 0
105 *341:57 *369:23 0
106 *341:57 *369:48 0
107 *341:161 *394:B 0
108 *342:25 *369:21 0
109 *342:31 *405:A 0
110 *342:31 *369:23 0
111 *342:104 *393:A 0
112 *342:127 *393:A 0
113 *344:50 *455:A 0
114 *344:50 *369:80 0
115 *344:50 *369:97 0
116 *344:58 *369:80 0
117 *344:71 *419:A 0
118 *344:71 *369:50 0
119 *344:71 *369:80 0
120 *345:38 *419:A 0
121 *345:38 *434:A 0
122 *345:38 *369:48 0
123 *345:38 *369:50 0
124 *347:5 *455:A 0
125 *347:5 *369:97 0
126 *351:8 *369:13 0
127 *351:56 *369:13 0
128 *352:37 *369:13 0
129 *360:66 *369:97 0
130 *367:10 *369:21 0
131 *367:12 *369:21 0
132 *367:22 *369:21 0
*RES
1 b[1] *369:7 36.5893 
2 *369:7 *369:13 23.2455 
3 *369:13 *369:19 7.20089 
4 *369:19 *369:21 19.5536 
5 *369:21 *369:23 2.85714 
6 *369:23 *405:A 22.2286 
7 *369:23 *369:48 26.9286 
8 *369:48 *369:50 1.35714 
9 *369:50 *419:A 18.1929 
10 *369:50 *434:A 19.0321 
11 *369:48 *369:80 29 
12 *369:80 *455:A 14.5321 
13 *369:80 *369:97 17.875 
14 *369:97 *479:A 9.3 
15 *369:97 *535:A1 21.4964 
16 *369:21 *393:A 15.9964 
17 *369:19 *394:B 16.733 
18 *369:13 *395:A2 9.3 
*END

*D_NET *370 0.0108508
*CONN
*P b[2] I
*I *599:C1 I *D sky130_fd_sc_hd__o211a_1
*I *569:B I *D sky130_fd_sc_hd__nand3b_1
*I *536:A2 I *D sky130_fd_sc_hd__a31oi_1
*I *535:B1 I *D sky130_fd_sc_hd__a22oi_1
*I *505:B I *D sky130_fd_sc_hd__and2_0
*I *477:B I *D sky130_fd_sc_hd__nand2_1
*I *453:B I *D sky130_fd_sc_hd__and2_0
*I *403:B I *D sky130_fd_sc_hd__nand2_1
*I *417:B I *D sky130_fd_sc_hd__and2_0
*I *432:B I *D sky130_fd_sc_hd__and2_0
*CAP
1 b[2] 0.000991654
2 *599:C1 0.00016146
3 *569:B 0
4 *536:A2 0
5 *535:B1 0
6 *505:B 0.000227169
7 *477:B 3.33694e-05
8 *453:B 0
9 *403:B 5.98938e-05
10 *417:B 0.000104386
11 *432:B 0.000202783
12 *370:117 0.000436604
13 *370:106 0.000544243
14 *370:93 0.000611632
15 *370:78 0.000802514
16 *370:46 0.00114241
17 *370:31 0.00142349
18 *370:21 0.00126847
19 *370:13 0.00133777
20 *370:9 0.00150297
21 *370:106 *374:9 0
22 *405:A *403:B 0
23 *405:A *417:B 0
24 *405:A *370:46 0
25 *432:A *370:46 0
26 *434:A *370:46 0
27 *454:A *505:B 0
28 *455:B *370:13 0
29 *477:A *370:13 0
30 *477:A *370:21 0
31 *488:B *370:46 0
32 *489:A *370:46 0
33 *505:A *505:B 0
34 *534:A *505:B 0
35 *534:A *370:93 0
36 *534:B *505:B 0
37 *534:C *370:78 0
38 *534:C *370:93 0
39 *535:A1 *370:93 0
40 *535:A1 *370:106 0
41 *536:A1 *370:117 0
42 *536:A3 *370:117 0
43 *536:B1 *370:117 0
44 *574:A *370:117 0
45 *574:B *599:C1 0
46 *574:B *370:117 0
47 *599:A2 *599:C1 0
48 *599:B1 *599:C1 0
49 *27:14 *432:B 0
50 *68:12 *370:46 0
51 *72:8 *370:93 0
52 *72:42 *370:93 0
53 *72:42 *370:106 0
54 *81:12 *370:46 0
55 *82:10 *370:46 0
56 *97:6 *505:B 0
57 *158:16 *599:C1 0
58 *168:16 *599:C1 0
59 *168:16 *370:117 0
60 *342:31 *417:B 0
61 *343:53 *370:46 0
62 *344:50 *477:B 0
63 *344:50 *370:13 0
64 *344:50 *370:21 0
65 *344:58 *370:21 0
66 *344:58 *370:31 0
67 *344:71 *432:B 0
68 *344:71 *370:31 0
69 *345:38 *370:46 0
70 *345:50 *370:21 0
71 *345:50 *370:31 0
72 *346:9 *505:B 0
73 *347:5 *370:9 0
74 *347:5 *370:78 0
75 *347:16 *370:93 0
76 *347:27 *370:93 0
77 *347:48 *370:106 0
78 *348:87 *599:C1 0
79 *348:95 *599:C1 0
80 *348:95 *370:117 0
81 *368:76 *370:46 0
82 *369:48 *370:46 0
83 *369:80 *370:13 0
*RES
1 b[2] *370:9 9.53033 
2 *370:9 *370:13 10.375 
3 *370:13 *370:21 21.5357 
4 *370:21 *370:31 5.33928 
5 *370:31 *432:B 13.5321 
6 *370:31 *370:46 31.1071 
7 *370:46 *417:B 11.4786 
8 *370:46 *403:B 10.675 
9 *370:21 *453:B 9.3 
10 *370:13 *477:B 10.2643 
11 *370:9 *370:78 5.28571 
12 *370:78 *505:B 18.4786 
13 *370:78 *370:93 7.71428 
14 *370:93 *535:B1 13.8 
15 *370:93 *370:106 10.625 
16 *370:106 *536:A2 9.3 
17 *370:106 *370:117 10.375 
18 *370:117 *569:B 13.8 
19 *370:117 *599:C1 17.4696 
*END

*D_NET *371 0.0129914
*CONN
*P b[3] I
*I *415:B I *D sky130_fd_sc_hd__nand2_1
*I *482:B I *D sky130_fd_sc_hd__nand2_1
*I *509:B I *D sky130_fd_sc_hd__nand2_1
*I *538:B I *D sky130_fd_sc_hd__nand2_1
*I *603:B1 I *D sky130_fd_sc_hd__a22oi_1
*I *571:B I *D sky130_fd_sc_hd__nand2_1
*I *458:B I *D sky130_fd_sc_hd__nand2_1
*I *438:D I *D sky130_fd_sc_hd__nand4_1
*I *439:B1 I *D sky130_fd_sc_hd__a22oi_1
*CAP
1 b[3] 0.00131669
2 *415:B 0.000371273
3 *482:B 0.000549626
4 *509:B 0
5 *538:B 4.23535e-05
6 *603:B1 0.000261914
7 *571:B 6.07494e-05
8 *458:B 0
9 *438:D 2.0535e-05
10 *439:B1 0
11 *371:100 0.000513986
12 *371:96 0.0010906
13 *371:80 0.00170761
14 *371:66 0.00226
15 *371:51 0.00140225
16 *371:45 0.00124796
17 *371:30 0.000591934
18 *371:13 0.00155396
19 *482:B *383:9 0
20 *538:B *372:46 0
21 *538:B *373:76 0
22 *371:13 *438:C 0
23 *371:30 *438:C 0
24 *371:51 *372:15 0
25 *371:66 *372:15 0
26 *371:80 *373:61 0
27 *371:80 *374:155 0
28 *371:80 *383:9 0
29 *371:96 *373:76 0
30 *371:96 *374:7 0
31 out[0] *371:51 0
32 out[10] *482:B 0
33 *421:A *415:B 0
34 *430:B *415:B 0
35 *433:B *371:66 0
36 *437:A *415:B 0
37 *437:A *371:51 0
38 *438:B *371:13 0
39 *439:A1 *371:45 0
40 *440:SLEEP *371:13 0
41 *451:C *371:13 0
42 *458:A *371:66 0
43 *463:B *438:D 0
44 *485:C *482:B 0
45 *490:B *371:66 0
46 *502:A *371:66 0
47 *502:C *371:66 0
48 *503:B *482:B 0
49 *503:C *482:B 0
50 *541:C *371:96 0
51 *568:B *371:96 0
52 *568:C *371:96 0
53 *569:C *571:B 0
54 *571:A *571:B 0
55 *26:12 *371:45 0
56 *26:12 *371:51 0
57 *31:29 *371:51 0
58 *33:10 *438:D 0
59 *33:10 *371:30 0
60 *33:10 *371:45 0
61 *35:12 *371:13 0
62 *47:10 *482:B 0
63 *54:10 *371:51 0
64 *55:10 *371:51 0
65 *56:14 *371:30 0
66 *56:14 *371:45 0
67 *67:10 *415:B 0
68 *67:10 *371:51 0
69 *77:8 *482:B 0
70 *83:14 *371:51 0
71 *83:14 *371:66 0
72 *85:12 *415:B 0
73 *104:14 *371:80 0
74 *106:12 *371:80 0
75 *158:16 *603:B1 0
76 *158:16 *371:100 0
77 *168:16 *371:100 0
78 *332:14 *415:B 0
79 *336:12 *415:B 0
80 *341:84 *371:45 0
81 *343:53 *371:66 0
82 *344:19 *538:B 0
83 *344:19 *371:96 0
84 *344:58 *482:B 0
85 *344:106 *603:B1 0
86 *344:106 *371:100 0
87 *345:68 *371:96 0
88 *347:60 *603:B1 0
89 *348:85 *603:B1 0
90 *348:87 *603:B1 0
91 *348:95 *603:B1 0
92 *348:95 *371:100 0
93 *355:22 *371:13 0
94 *355:22 *371:30 0
95 *363:20 *371:13 0
96 *368:49 *371:66 0
97 *368:49 *371:80 0
98 *369:80 *482:B 0
*RES
1 b[3] *371:13 38.125 
2 *371:13 *439:B1 13.8 
3 *371:13 *371:30 9.89286 
4 *371:30 *438:D 9.72857 
5 *371:30 *371:45 11.75 
6 *371:45 *371:51 16.4464 
7 *371:51 *458:B 9.3 
8 *371:51 *371:66 18.1607 
9 *371:66 *371:80 27.2857 
10 *371:80 *371:96 20.8549 
11 *371:96 *371:100 8.875 
12 *371:100 *571:B 15.0679 
13 *371:100 *603:B1 19.7464 
14 *371:96 *538:B 10.2464 
15 *371:80 *509:B 9.3 
16 *371:66 *482:B 30.4429 
17 *371:45 *415:B 22.2643 
*END

*D_NET *372 0.0139469
*CONN
*P b[4] I
*I *436:B I *D sky130_fd_sc_hd__nand2_1
*I *438:C I *D sky130_fd_sc_hd__nand4_1
*I *439:A2 I *D sky130_fd_sc_hd__a22oi_1
*I *483:B I *D sky130_fd_sc_hd__nand2_1
*I *572:B I *D sky130_fd_sc_hd__nand2_1
*I *631:A2 I *D sky130_fd_sc_hd__a22oi_1
*I *539:B I *D sky130_fd_sc_hd__nand2_1
*I *601:B I *D sky130_fd_sc_hd__nand2_1
*I *603:A2 I *D sky130_fd_sc_hd__a22oi_1
*I *510:B I *D sky130_fd_sc_hd__nand2_1
*I *459:B I *D sky130_fd_sc_hd__nand2_1
*CAP
1 b[4] 0.000583997
2 *436:B 0.000161286
3 *438:C 0.000141968
4 *439:A2 0.000120215
5 *483:B 3.50807e-05
6 *572:B 0.000491772
7 *631:A2 9.75414e-05
8 *539:B 0.000128597
9 *601:B 1.32622e-05
10 *603:A2 0.000123638
11 *510:B 0
12 *459:B 0.000221121
13 *372:147 0.00036657
14 *372:145 0.000589328
15 *372:98 0.0013141
16 *372:87 0.00101317
17 *372:63 0.000158077
18 *372:61 0.00069691
19 *372:46 0.00136544
20 *372:32 0.00149934
21 *372:15 0.00237687
22 *372:9 0.00244864
23 *539:B *373:93 0
24 *572:B *629:B 0
25 *572:B *659:A2 0
26 *572:B *374:66 0
27 *601:B *570:B 0
28 *372:32 *373:61 0
29 *372:32 *373:76 0
30 *372:46 *373:76 0
31 *372:61 *373:76 0
32 *372:87 *570:B 0
33 *372:98 *373:112 0
34 *433:B *372:15 0
35 *436:A *436:B 0
36 *438:B *438:C 0
37 *439:A1 *439:A2 0
38 *439:B2 *439:A2 0
39 *439:B2 *372:147 0
40 *461:C *372:15 0
41 *462:A *436:B 0
42 *462:A *439:A2 0
43 *462:A *372:147 0
44 *462:B *436:B 0
45 *474:A *436:B 0
46 *475:C *372:15 0
47 *483:A *483:B 0
48 *483:A *372:46 0
49 *484:B *459:B 0
50 *503:A *372:15 0
51 *506:A *372:46 0
52 *506:B *372:32 0
53 *506:B *372:46 0
54 *511:B *483:B 0
55 *511:B *372:32 0
56 *511:C *372:32 0
57 *512:C *372:32 0
58 *533:C *372:32 0
59 *536:B1 *372:46 0
60 *538:B *372:46 0
61 *540:C *372:46 0
62 *546:A *372:32 0
63 *568:C *372:46 0
64 *571:A *372:61 0
65 *601:A *372:61 0
66 *602:A *601:B 0
67 *602:A *603:A2 0
68 *604:B *603:A2 0
69 *604:B *372:87 0
70 *608:A *372:61 0
71 *611:B *372:98 0
72 *630:A *572:B 0
73 *632:B *631:A2 0
74 *637:B *372:98 0
75 *638:A *572:B 0
76 *638:B *572:B 0
77 *638:C *572:B 0
78 *657:B *572:B 0
79 *660:A2 *572:B 0
80 *677:B1 *572:B 0
81 *26:12 *372:145 0
82 *30:12 *372:9 0
83 *30:12 *372:145 0
84 *48:10 *459:B 0
85 *50:14 *372:15 0
86 *53:8 *459:B 0
87 *54:10 *372:9 0
88 *55:10 *372:9 0
89 *55:10 *372:145 0
90 *68:12 *372:15 0
91 *74:8 *459:B 0
92 *74:8 *372:32 0
93 *76:8 *483:B 0
94 *76:8 *372:32 0
95 *76:8 *372:46 0
96 *103:10 *372:32 0
97 *106:12 *372:32 0
98 *137:10 *372:32 0
99 *168:16 *372:46 0
100 *197:10 *372:61 0
101 *217:8 *572:B 0
102 *218:6 *572:B 0
103 *225:12 *631:A2 0
104 *263:10 *572:B 0
105 *342:45 *436:B 0
106 *342:45 *372:147 0
107 *343:22 *459:B 0
108 *343:36 *372:15 0
109 *344:15 *372:46 0
110 *344:19 *372:46 0
111 *344:106 *372:46 0
112 *345:54 *459:B 0
113 *345:54 *372:32 0
114 *345:68 *372:46 0
115 *345:68 *372:61 0
116 *345:79 *372:61 0
117 *345:100 *372:98 0
118 *346:59 *372:61 0
119 *346:69 *372:61 0
120 *347:48 *603:A2 0
121 *347:70 *372:61 0
122 *347:83 *572:B 0
123 *347:83 *631:A2 0
124 *347:87 *572:B 0
125 *348:54 *572:B 0
126 *348:54 *631:A2 0
127 *348:62 *572:B 0
128 *348:62 *372:98 0
129 *348:81 *603:A2 0
130 *348:81 *372:87 0
131 *368:49 *372:15 0
132 *369:97 *372:46 0
133 *371:13 *438:C 0
134 *371:30 *438:C 0
135 *371:51 *372:15 0
136 *371:66 *372:15 0
*RES
1 b[4] *372:9 13.3214 
2 *372:9 *372:15 41.1607 
3 *372:15 *459:B 18.7107 
4 *372:15 *372:32 17.8214 
5 *372:32 *372:46 26.9286 
6 *372:46 *510:B 9.3 
7 *372:46 *372:61 20.625 
8 *372:61 *372:63 0.535714 
9 *372:63 *603:A2 11.9429 
10 *372:63 *601:B 9.72857 
11 *372:61 *372:87 7.92857 
12 *372:87 *539:B 16.6571 
13 *372:87 *372:98 16.5179 
14 *372:98 *631:A2 15.8357 
15 *372:98 *572:B 33.5054 
16 *372:32 *483:B 10.0321 
17 *372:9 *372:145 11.9107 
18 *372:145 *372:147 2.17857 
19 *372:147 *439:A2 11.8714 
20 *372:147 *438:C 21.4607 
21 *372:145 *436:B 12.7286 
*END

*D_NET *373 0.0189772
*CONN
*P b[5] I
*I *634:A2 I *D sky130_fd_sc_hd__a31oi_1
*I *629:B I *D sky130_fd_sc_hd__nand2_1
*I *631:B1 I *D sky130_fd_sc_hd__a22oi_1
*I *600:B I *D sky130_fd_sc_hd__nand2_1
*I *570:B I *D sky130_fd_sc_hd__nand2_1
*I *537:B I *D sky130_fd_sc_hd__nand2_1
*I *508:B I *D sky130_fd_sc_hd__nand2_1
*I *481:B I *D sky130_fd_sc_hd__nand2_1
*I *457:B I *D sky130_fd_sc_hd__nand2_1
*CAP
1 b[5] 0.00183087
2 *634:A2 0
3 *629:B 0.000354529
4 *631:B1 0
5 *600:B 6.50276e-05
6 *570:B 0.000108237
7 *537:B 0.000191526
8 *508:B 0
9 *481:B 9.23627e-05
10 *457:B 0.000216439
11 *373:137 0.0010328
12 *373:118 0.000980593
13 *373:112 0.000675691
14 *373:93 0.000978241
15 *373:76 0.00171106
16 *373:61 0.00134911
17 *373:44 0.00168658
18 *373:21 0.00170325
19 *373:19 0.00216187
20 *373:11 0.00383897
21 *629:B *657:A 0
22 *373:11 *707:A2 0
23 *373:11 *730:RESET_B 0
24 *373:11 *747:A 0
25 *373:11 *379:79 0
26 *373:11 *381:21 0
27 *373:19 *747:A 0
28 *373:19 *381:21 0
29 *373:19 *381:41 0
30 *373:19 *382:46 0
31 *373:19 *382:54 0
32 *373:19 *383:45 0
33 *373:19 *383:56 0
34 *373:19 *383:71 0
35 *373:19 *383:122 0
36 *373:44 *374:155 0
37 *373:44 *375:42 0
38 *373:61 *374:139 0
39 *373:61 *374:155 0
40 *373:76 *374:139 0
41 *373:118 *375:78 0
42 *373:137 *609:B 0
43 *373:137 *374:38 0
44 out[0] *457:B 0
45 out[0] *373:19 0
46 out[0] *373:21 0
47 *390:A2 *373:19 0
48 *401:A2 *373:19 0
49 *421:A *373:19 0
50 *424:B *373:19 0
51 *425:A *373:19 0
52 *425:B *373:19 0
53 *426:B1 *373:19 0
54 *437:A *373:19 0
55 *437:A *373:21 0
56 *481:A *481:B 0
57 *481:A *373:44 0
58 *483:A *373:76 0
59 *508:A *373:76 0
60 *511:B *373:76 0
61 *511:C *373:61 0
62 *515:A *373:44 0
63 *518:C *373:44 0
64 *530:C *373:44 0
65 *531:A *373:44 0
66 *531:B *373:44 0
67 *531:C *373:44 0
68 *536:A1 *373:76 0
69 *536:A3 *373:76 0
70 *538:B *373:76 0
71 *539:B *373:93 0
72 *540:B *537:B 0
73 *541:C *373:76 0
74 *556:B1 *373:19 0
75 *560:B *373:19 0
76 *568:B *373:76 0
77 *570:A *570:B 0
78 *572:B *629:B 0
79 *573:A *570:B 0
80 *579:A *373:112 0
81 *579:A *373:118 0
82 *601:B *570:B 0
83 *605:A *373:118 0
84 *605:B *373:118 0
85 *610:A *373:112 0
86 *611:B *373:112 0
87 *612:A *373:137 0
88 *612:B *373:137 0
89 *628:A2 *373:137 0
90 *633:A *373:137 0
91 *634:B1 *373:112 0
92 *636:B *373:137 0
93 *655:C *373:137 0
94 *657:B *629:B 0
95 *677:B1 *629:B 0
96 *26:12 *373:44 0
97 *72:57 *373:76 0
98 *76:8 *373:76 0
99 *83:14 *457:B 0
100 *83:14 *373:21 0
101 *84:14 *373:19 0
102 *85:12 *373:19 0
103 *101:10 *373:61 0
104 *101:10 *373:76 0
105 *102:8 *537:B 0
106 *106:12 *481:B 0
107 *114:12 *373:19 0
108 *123:12 *481:B 0
109 *123:12 *373:44 0
110 *130:6 *570:B 0
111 *140:16 *373:44 0
112 *188:10 *373:118 0
113 *194:8 *373:118 0
114 *195:8 *600:B 0
115 *200:14 *600:B 0
116 *215:22 *600:B 0
117 *215:22 *373:137 0
118 *217:8 *629:B 0
119 *242:10 *629:B 0
120 *242:10 *373:137 0
121 *330:14 *373:19 0
122 *341:65 *373:44 0
123 *341:78 *457:B 0
124 *341:78 *373:44 0
125 *341:84 *373:44 0
126 *342:41 *457:B 0
127 *344:19 *373:76 0
128 *345:68 *537:B 0
129 *345:79 *537:B 0
130 *345:79 *373:76 0
131 *345:79 *373:93 0
132 *345:100 *373:93 0
133 *345:100 *373:112 0
134 *346:46 *537:B 0
135 *346:69 *373:112 0
136 *347:70 *373:137 0
137 *348:62 *629:B 0
138 *348:62 *373:137 0
139 *348:81 *373:112 0
140 *348:95 *373:76 0
141 *349:12 *373:19 0
142 *355:16 *373:11 0
143 *355:20 *373:11 0
144 *357:32 *373:19 0
145 *361:28 *373:19 0
146 *371:80 *373:61 0
147 *371:96 *373:76 0
148 *372:32 *373:61 0
149 *372:32 *373:76 0
150 *372:46 *373:76 0
151 *372:61 *373:76 0
152 *372:87 *570:B 0
153 *372:98 *373:112 0
*RES
1 b[5] *373:11 44.4821 
2 *373:11 *373:19 49.1518 
3 *373:19 *373:21 3.61607 
4 *373:21 *457:B 18.7464 
5 *373:21 *373:44 37.6964 
6 *373:44 *481:B 15.9161 
7 *373:44 *373:61 9.98214 
8 *373:61 *508:B 9.3 
9 *373:61 *373:76 27.2679 
10 *373:76 *537:B 18.0321 
11 *373:76 *373:93 9.76786 
12 *373:93 *570:B 16.1214 
13 *373:93 *373:112 14.0357 
14 *373:112 *373:118 9.73214 
15 *373:118 *600:B 15.1571 
16 *373:118 *373:137 24.0179 
17 *373:137 *631:B1 13.8 
18 *373:137 *629:B 21.7464 
19 *373:112 *634:A2 9.3 
*END

*D_NET *374 0.0114817
*CONN
*P b[6] I
*I *547:B I *D sky130_fd_sc_hd__nand2_1
*I *487:B I *D sky130_fd_sc_hd__nand2_1
*I *515:B I *D sky130_fd_sc_hd__nand2_1
*I *609:B I *D sky130_fd_sc_hd__nand2_1
*I *657:A I *D sky130_fd_sc_hd__nand2_1
*I *660:A1 I *D sky130_fd_sc_hd__a21oi_1
*I *680:A2 I *D sky130_fd_sc_hd__a22oi_1
*I *658:B I *D sky130_fd_sc_hd__nand2_1
*I *659:A2 I *D sky130_fd_sc_hd__a21oi_1
*I *635:B I *D sky130_fd_sc_hd__nand2_1
*I *579:B I *D sky130_fd_sc_hd__nand2_1
*CAP
1 b[6] 0.000839225
2 *547:B 0.000147554
3 *487:B 0.000114019
4 *515:B 6.06232e-05
5 *609:B 0.000237864
6 *657:A 0.000370546
7 *660:A1 4.53482e-05
8 *680:A2 1.92304e-05
9 *658:B 0.00016816
10 *659:A2 3.16582e-05
11 *635:B 7.27282e-06
12 *579:B 0.000322571
13 *374:155 0.00104015
14 *374:139 0.00152772
15 *374:102 0.000478797
16 *374:70 0.000478956
17 *374:66 0.000473588
18 *374:53 0.000447362
19 *374:38 0.000496557
20 *374:34 0.000890611
21 *374:9 0.00135633
22 *374:7 0.0019276
23 *658:B *385:47 0
24 *374:38 *375:78 0
25 *374:38 *375:99 0
26 *374:53 *375:99 0
27 *374:53 *375:105 0
28 *374:155 *375:42 0
29 out[10] *374:155 0
30 *487:A *487:B 0
31 *489:B *487:B 0
32 *513:A *487:B 0
33 *513:A *515:B 0
34 *515:A *487:B 0
35 *515:A *515:B 0
36 *531:A *374:155 0
37 *536:B1 *374:9 0
38 *542:B *374:139 0
39 *547:A *547:B 0
40 *547:A *374:139 0
41 *548:A *374:155 0
42 *572:B *659:A2 0
43 *572:B *374:66 0
44 *574:A *374:9 0
45 *577:A *374:139 0
46 *579:A *579:B 0
47 *582:A *374:9 0
48 *596:A2 *579:B 0
49 *597:B *579:B 0
50 *598:B1 *374:9 0
51 *599:A1 *374:9 0
52 *612:A *609:B 0
53 *612:B *374:34 0
54 *614:B *579:B 0
55 *615:B *579:B 0
56 *628:A1 *374:34 0
57 *628:A2 *609:B 0
58 *628:A2 *374:34 0
59 *628:B1 *374:34 0
60 *629:A *657:A 0
61 *629:B *657:A 0
62 *630:B *374:66 0
63 *632:A *374:53 0
64 *638:A *659:A2 0
65 *638:C *374:53 0
66 *641:B *374:34 0
67 *641:B *374:53 0
68 *657:B *657:A 0
69 *659:B1 *374:53 0
70 *660:A2 *374:53 0
71 *660:A2 *374:66 0
72 *660:A2 *374:102 0
73 *663:B *657:A 0
74 *664:A *657:A 0
75 *664:B *657:A 0
76 *665:B *657:A 0
77 *676:A *374:102 0
78 *677:A2 *657:A 0
79 *677:B1 *657:A 0
80 *679:B *658:B 0
81 *680:A1 *680:A2 0
82 *72:57 *374:9 0
83 *105:10 *374:155 0
84 *106:12 *374:155 0
85 *109:10 *515:B 0
86 *124:16 *374:139 0
87 *137:10 *547:B 0
88 *166:16 *374:9 0
89 *186:12 *579:B 0
90 *188:10 *374:9 0
91 *188:10 *374:34 0
92 *202:8 *579:B 0
93 *215:22 *609:B 0
94 *215:22 *374:34 0
95 *215:22 *374:38 0
96 *216:14 *374:34 0
97 *217:25 *657:A 0
98 *226:10 *374:66 0
99 *227:20 *374:53 0
100 *243:12 *374:53 0
101 *252:10 *657:A 0
102 *263:10 *657:A 0
103 *263:10 *374:53 0
104 *341:59 *487:B 0
105 *341:59 *515:B 0
106 *341:65 *487:B 0
107 *343:115 *547:B 0
108 *345:68 *374:7 0
109 *347:48 *374:9 0
110 *347:87 *374:53 0
111 *347:99 *374:53 0
112 *348:9 *374:70 0
113 *360:66 *374:9 0
114 *360:66 *374:34 0
115 *370:106 *374:9 0
116 *371:80 *374:155 0
117 *371:96 *374:7 0
118 *373:44 *374:155 0
119 *373:61 *374:139 0
120 *373:61 *374:155 0
121 *373:76 *374:139 0
122 *373:137 *609:B 0
123 *373:137 *374:38 0
*RES
1 b[6] *374:7 6.44934 
2 *374:7 *374:9 13.0268 
3 *374:9 *579:B 20.5321 
4 *374:9 *374:34 14.6964 
5 *374:34 *374:38 8.875 
6 *374:38 *635:B 13.9518 
7 *374:38 *374:53 11.1429 
8 *374:53 *659:A2 9.99196 
9 *374:53 *374:66 7.20536 
10 *374:66 *374:70 4.46594 
11 *374:70 *658:B 18.5019 
12 *374:70 *680:A2 17.6341 
13 *374:66 *374:102 5.99107 
14 *374:102 *660:A1 10.2464 
15 *374:102 *657:A 26.2286 
16 *374:34 *609:B 14.3893 
17 *374:7 *374:139 15.3036 
18 *374:139 *374:155 27.8963 
19 *374:155 *515:B 15.2196 
20 *374:155 *487:B 16.4161 
21 *374:139 *547:B 21.5857 
*END

*D_NET *375 0.0101088
*CONN
*P b[7] I
*I *607:B I *D sky130_fd_sc_hd__nand2_1
*I *656:B I *D sky130_fd_sc_hd__nand2_1
*I *693:B I *D sky130_fd_sc_hd__nand3_1
*I *680:B1 I *D sky130_fd_sc_hd__a22oi_1
*I *678:B I *D sky130_fd_sc_hd__nand2_1
*I *633:B I *D sky130_fd_sc_hd__nand2_1
*I *577:B I *D sky130_fd_sc_hd__nand2_1
*I *545:B I *D sky130_fd_sc_hd__nand2_1
*I *513:B I *D sky130_fd_sc_hd__nand2_1
*CAP
1 b[7] 0.00131968
2 *607:B 4.23535e-05
3 *656:B 2.0535e-05
4 *693:B 3.08614e-05
5 *680:B1 0.000109136
6 *678:B 0.000218223
7 *633:B 4.62038e-05
8 *577:B 2.0535e-05
9 *545:B 0
10 *513:B 0
11 *375:111 0.000431745
12 *375:105 0.000310757
13 *375:99 0.000533975
14 *375:78 0.000924086
15 *375:72 0.00140505
16 *375:51 0.00122403
17 *375:42 0.00126637
18 *375:15 0.0022053
19 *375:42 *383:9 0
20 out[10] *375:15 0
21 out[10] *375:42 0
22 *418:A *375:15 0
23 *432:A *375:15 0
24 *433:B *375:15 0
25 *481:A *375:51 0
26 *488:A *375:15 0
27 *490:C *375:15 0
28 *502:C *375:15 0
29 *513:A *375:15 0
30 *513:A *375:42 0
31 *515:A *375:42 0
32 *530:C *375:42 0
33 *531:B *375:42 0
34 *531:C *375:42 0
35 *549:A *375:51 0
36 *551:C *375:42 0
37 *553:A *375:42 0
38 *565:A1 *375:42 0
39 *565:A2 *375:42 0
40 *565:B1_N *375:42 0
41 *567:A2 *375:51 0
42 *567:A2 *375:72 0
43 *579:A *607:B 0
44 *579:A *375:72 0
45 *581:A *375:72 0
46 *581:B *375:72 0
47 *582:A *375:72 0
48 *583:B *375:72 0
49 *584:SLEEP *375:51 0
50 *585:A *375:51 0
51 *585:B *375:51 0
52 *596:B1 *375:51 0
53 *597:A *375:72 0
54 *597:B *375:72 0
55 *598:A1 *375:72 0
56 *598:A2 *375:72 0
57 *605:A *375:78 0
58 *628:A2 *375:78 0
59 *632:B *375:99 0
60 *633:A *375:78 0
61 *633:A *375:99 0
62 *635:A *633:B 0
63 *636:B *375:78 0
64 *637:A *633:B 0
65 *639:A *375:99 0
66 *656:A *656:B 0
67 *656:A *375:99 0
68 *661:B *680:B1 0
69 *678:A *678:B 0
70 *678:A *375:105 0
71 *678:A *375:111 0
72 *680:A1 *375:111 0
73 *693:C *680:B1 0
74 *50:14 *375:15 0
75 *52:12 *375:15 0
76 *79:6 *375:15 0
77 *105:10 *375:42 0
78 *107:8 *375:42 0
79 *108:10 *375:15 0
80 *122:8 *375:42 0
81 *123:12 *375:42 0
82 *136:10 *375:51 0
83 *140:16 *375:42 0
84 *167:6 *375:72 0
85 *168:22 *375:72 0
86 *172:8 *375:72 0
87 *173:10 *375:51 0
88 *173:10 *375:72 0
89 *175:10 *375:51 0
90 *193:12 *375:78 0
91 *194:8 *375:78 0
92 *215:22 *375:99 0
93 *223:10 *633:B 0
94 *223:10 *375:78 0
95 *227:20 *633:B 0
96 *227:20 *375:99 0
97 *229:6 *375:105 0
98 *243:12 *375:99 0
99 *243:12 *375:105 0
100 *263:10 *693:B 0
101 *278:22 *680:B1 0
102 *341:65 *375:15 0
103 *342:127 *375:42 0
104 *342:127 *375:51 0
105 *343:53 *375:15 0
106 *343:70 *375:15 0
107 *346:73 *375:78 0
108 *346:92 *633:B 0
109 *346:92 *375:78 0
110 *346:92 *375:99 0
111 *347:48 *375:72 0
112 *347:70 *375:99 0
113 *347:99 *678:B 0
114 *347:99 *375:99 0
115 *347:99 *375:105 0
116 *348:81 *607:B 0
117 *348:85 *375:78 0
118 *351:56 *678:B 0
119 *360:66 *678:B 0
120 *360:66 *680:B1 0
121 *360:66 *375:105 0
122 *368:76 *375:15 0
123 *373:44 *375:42 0
124 *373:118 *375:78 0
125 *374:38 *375:78 0
126 *374:38 *375:99 0
127 *374:53 *375:99 0
128 *374:53 *375:105 0
129 *374:155 *375:42 0
*RES
1 b[7] *375:15 42.625 
2 *375:15 *513:B 9.3 
3 *375:15 *375:42 37.2143 
4 *375:42 *545:B 9.3 
5 *375:42 *375:51 7.94643 
6 *375:51 *577:B 9.72857 
7 *375:51 *375:72 26.4286 
8 *375:72 *375:78 16.6964 
9 *375:78 *633:B 14.7643 
10 *375:78 *375:99 12.0357 
11 *375:99 *375:105 9.21428 
12 *375:105 *375:111 11.1786 
13 *375:111 *678:B 18.7821 
14 *375:111 *680:B1 16.4071 
15 *375:105 *693:B 14.8357 
16 *375:99 *656:B 9.72857 
17 *375:72 *607:B 10.2464 
*END

*D_NET *376 0.00349199
*CONN
*P clear_acc I
*I *391:A I *D sky130_fd_sc_hd__nor2_1
*CAP
1 clear_acc 0.00174599
2 *391:A 0.00174599
3 *391:A *385:43 0
4 out[11] *391:A 0
5 *359:72 *391:A 0
*RES
1 clear_acc *391:A 39.4904 
*END

*D_NET *377 0.0070926
*CONN
*P clk I
*I *746:A I *D sky130_fd_sc_hd__clkbuf_4
*CAP
1 clk 0.000972149
2 *746:A 2.0535e-05
3 *377:9 0.00257415
4 *377:7 0.00352576
5 *377:9 *413:A1 0
6 *377:9 *688:A2 0
7 *377:9 *729:CLK 0
8 *377:9 *747:A 0
9 *377:9 *748:A 0
10 *377:9 *380:42 0
11 *377:9 *381:45 0
12 *377:9 *381:56 0
13 *377:9 *381:338 0
14 *377:9 *381:349 0
15 *377:9 *381:355 0
16 *377:9 *382:46 0
17 out[3] *377:9 0
18 *413:B1 *377:9 0
19 *685:A *377:9 0
20 *685:B *377:9 0
21 *687:A *377:9 0
22 *688:A1 *377:9 0
23 *689:A2 *377:9 0
24 *689:B1 *377:9 0
25 *694:A *377:9 0
26 *696:B *377:9 0
27 *697:SLEEP *377:9 0
28 *698:A *377:9 0
29 *703:A2 *377:9 0
30 *705:A *377:9 0
31 *705:C *377:9 0
32 *728:D *377:9 0
33 *271:14 *377:9 0
34 *279:16 *377:9 0
35 *289:20 *377:9 0
36 *310:59 *377:9 0
37 *330:14 *377:9 0
38 *353:28 *377:9 0
39 *360:64 *377:9 0
*RES
1 clk *377:7 26.5714 
2 *377:7 *377:9 53.1071 
3 *377:9 *746:A 9.72857 
*END

*D_NET *378 0.00215908
*CONN
*I *748:A I *D sky130_fd_sc_hd__clkbuf_4
*I *747:A I *D sky130_fd_sc_hd__clkbuf_4
*I *746:X O *D sky130_fd_sc_hd__clkbuf_4
*CAP
1 *748:A 0.000344389
2 *747:A 0.000735152
3 *746:X 0
4 *378:4 0.00107954
5 *747:A *727:CLK 0
6 *747:A *379:6 0
7 *748:A *381:338 0
8 *411:B1 *748:A 0
9 *424:B *747:A 0
10 *425:A *747:A 0
11 *425:B *747:A 0
12 *449:A2 *747:A 0
13 *310:65 *748:A 0
14 *310:67 *748:A 0
15 *310:73 *747:A 0
16 *310:73 *748:A 0
17 *310:77 *747:A 0
18 *330:14 *747:A 0
19 *361:28 *747:A 0
20 *361:36 *747:A 0
21 *362:8 *747:A 0
22 *362:31 *747:A 0
23 *373:11 *747:A 0
24 *373:19 *747:A 0
25 *377:9 *747:A 0
26 *377:9 *748:A 0
*RES
1 *746:X *378:4 9.3 
2 *378:4 *747:A 33.8 
3 *378:4 *748:A 16.425 
*END

*D_NET *379 0.00846865
*CONN
*I *727:CLK I *D sky130_fd_sc_hd__dfrtp_1
*I *742:CLK I *D sky130_fd_sc_hd__dfrtp_1
*I *741:CLK I *D sky130_fd_sc_hd__dfrtp_1
*I *730:CLK I *D sky130_fd_sc_hd__dfrtp_1
*I *726:CLK I *D sky130_fd_sc_hd__dfrtp_1
*I *734:CLK I *D sky130_fd_sc_hd__dfrtp_1
*I *733:CLK I *D sky130_fd_sc_hd__dfrtp_1
*I *731:CLK I *D sky130_fd_sc_hd__dfrtp_1
*I *732:CLK I *D sky130_fd_sc_hd__dfrtp_1
*I *747:X O *D sky130_fd_sc_hd__clkbuf_4
*CAP
1 *727:CLK 0.000423321
2 *742:CLK 0.000724478
3 *741:CLK 6.37441e-05
4 *730:CLK 6.50276e-05
5 *726:CLK 0.000141606
6 *734:CLK 0.000336261
7 *733:CLK 6.07494e-05
8 *731:CLK 0.000393264
9 *732:CLK 0.000139215
10 *747:X 2.41714e-05
11 *379:90 0.00108789
12 *379:79 0.000765974
13 *379:26 0.000879864
14 *379:22 0.000588243
15 *379:20 0.000848015
16 *379:12 0.000775651
17 *379:8 0.000703679
18 *379:6 0.000447492
19 *726:CLK *382:64 0
20 *727:CLK *383:79 0
21 *730:CLK *730:RESET_B 0
22 *731:CLK *730:RESET_B 0
23 *731:CLK *382:85 0
24 *732:CLK *732:RESET_B 0
25 *732:CLK *382:85 0
26 *734:CLK *382:66 0
27 *734:CLK *382:156 0
28 *742:CLK *382:118 0
29 *379:12 *382:64 0
30 *379:22 *497:A2 0
31 *379:22 *733:RESET_B 0
32 *379:22 *381:163 0
33 *379:22 *382:66 0
34 *379:26 *497:A2 0
35 *379:79 *472:A1 0
36 *379:79 *709:A1 0
37 *379:79 *730:RESET_B 0
38 *379:79 *383:79 0
39 *379:90 *730:RESET_B 0
40 *379:90 *382:104 0
41 out[14] *379:12 0
42 out[14] *379:79 0
43 *423:A *726:CLK 0
44 *423:B *726:CLK 0
45 *429:B *727:CLK 0
46 *429:C *727:CLK 0
47 *446:A *727:CLK 0
48 *446:C *379:12 0
49 *447:A1 *730:CLK 0
50 *449:A2 *727:CLK 0
51 *449:B1 *379:79 0
52 *450:A *379:12 0
53 *450:B *726:CLK 0
54 *497:A1 *379:26 0
55 *497:B1 *733:CLK 0
56 *499:B1 *733:CLK 0
57 *499:B1 *379:22 0
58 *499:B1 *379:26 0
59 *730:D *730:CLK 0
60 *730:D *379:79 0
61 *732:D *732:CLK 0
62 *732:D *379:26 0
63 *741:D *742:CLK 0
64 *741:D *379:90 0
65 *742:D *742:CLK 0
66 *747:A *727:CLK 0
67 *747:A *379:6 0
68 *40:8 *379:12 0
69 *40:8 *379:20 0
70 *44:14 *726:CLK 0
71 *61:12 *732:CLK 0
72 *310:140 *734:CLK 0
73 *310:140 *379:22 0
74 *338:10 *379:20 0
75 *339:10 *379:12 0
76 *342:15 *742:CLK 0
77 *355:22 *379:20 0
78 *355:22 *379:90 0
79 *362:8 *379:12 0
80 *362:8 *379:79 0
81 *362:31 *727:CLK 0
82 *362:31 *379:6 0
83 *366:10 *734:CLK 0
84 *373:11 *379:79 0
*RES
1 *747:X *379:6 9.83571 
2 *379:6 *379:8 4.5 
3 *379:8 *379:12 11.3036 
4 *379:12 *379:20 16.4464 
5 *379:20 *379:22 3.82143 
6 *379:22 *379:26 12.0179 
7 *379:26 *732:CLK 16.9607 
8 *379:26 *731:CLK 22.7286 
9 *379:22 *733:CLK 10.5679 
10 *379:20 *734:CLK 16.4429 
11 *379:12 *726:CLK 12.3179 
12 *379:8 *379:79 13.125 
13 *379:79 *730:CLK 10.6571 
14 *379:79 *379:90 11.3036 
15 *379:90 *741:CLK 15.1929 
16 *379:90 *742:CLK 29.3714 
17 *379:6 *727:CLK 18.3536 
*END

*D_NET *380 0.00830436
*CONN
*I *745:CLK I *D sky130_fd_sc_hd__dfrtp_1
*I *743:CLK I *D sky130_fd_sc_hd__dfrtp_1
*I *744:CLK I *D sky130_fd_sc_hd__dfrtp_1
*I *740:CLK I *D sky130_fd_sc_hd__dfrtp_1
*I *739:CLK I *D sky130_fd_sc_hd__dfrtp_1
*I *738:CLK I *D sky130_fd_sc_hd__dfrtp_1
*I *737:CLK I *D sky130_fd_sc_hd__dfrtp_1
*I *736:CLK I *D sky130_fd_sc_hd__dfrtp_1
*I *735:CLK I *D sky130_fd_sc_hd__dfrtp_1
*I *728:CLK I *D sky130_fd_sc_hd__dfrtp_1
*I *729:CLK I *D sky130_fd_sc_hd__dfrtp_1
*I *748:X O *D sky130_fd_sc_hd__clkbuf_4
*CAP
1 *745:CLK 0.000233158
2 *743:CLK 0.000635302
3 *744:CLK 2.56688e-05
4 *740:CLK 0.000248132
5 *739:CLK 6.28885e-05
6 *738:CLK 0
7 *737:CLK 6.35302e-05
8 *736:CLK 0
9 *735:CLK 0.000466384
10 *728:CLK 2.0535e-05
11 *729:CLK 0.000202783
12 *748:X 0.000197935
13 *380:127 0.000951439
14 *380:114 0.000325316
15 *380:103 0.000584746
16 *380:56 0.000775111
17 *380:48 0.000712038
18 *380:46 0.000572592
19 *380:42 0.000658848
20 *380:36 0.000607158
21 *380:25 0.00035234
22 *380:10 0.000608458
23 *729:CLK *382:46 0
24 *729:CLK *383:143 0
25 *729:CLK *383:158 0
26 *735:CLK *735:RESET_B 0
27 *740:CLK *729:RESET_B 0
28 *740:CLK *382:21 0
29 *740:CLK *382:196 0
30 *743:CLK out[19] 0
31 *743:CLK *718:B2 0
32 *743:CLK *743:RESET_B 0
33 *745:CLK *725:A1 0
34 *745:CLK *385:6 0
35 *380:10 *729:RESET_B 0
36 *380:10 *382:46 0
37 *380:25 *729:RESET_B 0
38 *380:25 *383:158 0
39 *380:42 *381:349 0
40 *380:46 *382:204 0
41 *380:46 *382:210 0
42 *380:48 *382:210 0
43 *380:56 *736:RESET_B 0
44 *380:56 *382:210 0
45 *380:103 *728:RESET_B 0
46 *394:A *735:CLK 0
47 *394:A *380:56 0
48 *394:C *735:CLK 0
49 *394:D *735:CLK 0
50 *399:B1 *380:10 0
51 *407:A_N *735:CLK 0
52 *412:A2 *380:46 0
53 *428:A2 *729:CLK 0
54 *428:A2 *380:10 0
55 *428:A2 *380:25 0
56 *624:A2 *380:56 0
57 *714:A *743:CLK 0
58 *715:B1 *743:CLK 0
59 *718:A2 *743:CLK 0
60 *718:B1 *743:CLK 0
61 *720:A *743:CLK 0
62 *721:B1 *740:CLK 0
63 *721:B1 *380:103 0
64 *721:B1 *380:114 0
65 *722:A1 *743:CLK 0
66 *722:A2 *380:114 0
67 *722:B1 *743:CLK 0
68 *722:B1 *380:114 0
69 *722:B1 *380:127 0
70 *723:B1 *380:114 0
71 *724:A3 *743:CLK 0
72 *724:B1 *744:CLK 0
73 *724:B1 *380:114 0
74 *725:A2 *745:CLK 0
75 *725:B1 *380:114 0
76 *725:B1 *380:127 0
77 *725:B2 *743:CLK 0
78 *728:D *380:36 0
79 *728:D *380:42 0
80 *729:D *729:CLK 0
81 *735:D *735:CLK 0
82 *736:D *380:56 0
83 *738:D *380:48 0
84 *743:D *743:CLK 0
85 *744:D *743:CLK 0
86 *744:D *744:CLK 0
87 *744:D *745:CLK 0
88 *745:D *745:CLK 0
89 *288:20 *380:25 0
90 *288:20 *380:36 0
91 *310:59 *739:CLK 0
92 *310:65 *380:10 0
93 *310:276 *380:42 0
94 *310:276 *380:103 0
95 *310:276 *380:114 0
96 *323:8 *735:CLK 0
97 *324:10 *735:CLK 0
98 *330:14 *380:10 0
99 *341:19 *380:48 0
100 *341:42 *380:56 0
101 *342:17 *380:42 0
102 *342:17 *380:103 0
103 *342:17 *380:114 0
104 *345:17 *735:CLK 0
105 *350:10 *737:CLK 0
106 *354:30 *380:36 0
107 *357:12 *743:CLK 0
108 *359:55 *380:46 0
109 *360:12 *380:46 0
110 *367:10 *735:CLK 0
111 *367:10 *380:56 0
112 *369:13 *737:CLK 0
113 *369:19 *380:48 0
114 *369:21 *380:48 0
115 *369:21 *380:56 0
116 *377:9 *729:CLK 0
117 *377:9 *380:42 0
*RES
1 *748:X *380:10 18.2107 
2 *380:10 *729:CLK 18.0321 
3 *380:10 *380:25 9.125 
4 *380:25 *728:CLK 9.72857 
5 *380:25 *380:36 7.08929 
6 *380:36 *380:42 12.4821 
7 *380:42 *380:46 9.78571 
8 *380:46 *380:48 7.71428 
9 *380:48 *380:56 11.1071 
10 *380:56 *735:CLK 28.2643 
11 *380:56 *736:CLK 9.3 
12 *380:48 *737:CLK 15.1571 
13 *380:46 *738:CLK 13.8 
14 *380:42 *739:CLK 10.675 
15 *380:36 *380:103 2.78571 
16 *380:103 *740:CLK 18.8536 
17 *380:103 *380:114 4.98214 
18 *380:114 *744:CLK 14.3357 
19 *380:114 *380:127 6.44643 
20 *380:127 *743:CLK 22.6214 
21 *380:127 *745:CLK 14.4964 
*END

*D_NET *381 0.0209178
*CONN
*P en I
*I *717:C I *D sky130_fd_sc_hd__nand4_1
*I *713:B I *D sky130_fd_sc_hd__nand3_1
*I *712:A1 I *D sky130_fd_sc_hd__a21oi_1
*I *426:A2 I *D sky130_fd_sc_hd__o21ai_0
*I *412:A1 I *D sky130_fd_sc_hd__a21oi_1
*I *702:A1 I *D sky130_fd_sc_hd__a21oi_1
*I *701:A2 I *D sky130_fd_sc_hd__o21ai_0
*I *689:A1 I *D sky130_fd_sc_hd__a21oi_1
*I *688:A2 I *D sky130_fd_sc_hd__o21ai_0
*I *411:A2 I *D sky130_fd_sc_hd__o21ai_0
*I *399:A2 I *D sky130_fd_sc_hd__o21ai_0
*I *672:A1 I *D sky130_fd_sc_hd__a21oi_1
*I *671:A2 I *D sky130_fd_sc_hd__o21ai_0
*I *649:A2 I *D sky130_fd_sc_hd__o21ai_0
*I *650:A1 I *D sky130_fd_sc_hd__a21oi_1
*I *622:A2 I *D sky130_fd_sc_hd__o21ai_0
*I *623:A1 I *D sky130_fd_sc_hd__a21oi_1
*I *592:A2 I *D sky130_fd_sc_hd__o21ai_0
*I *593:A1 I *D sky130_fd_sc_hd__a21oi_1
*I *561:A2 I *D sky130_fd_sc_hd__o21ai_0
*I *562:A1 I *D sky130_fd_sc_hd__a21oi_1
*I *527:A1 I *D sky130_fd_sc_hd__a21oi_1
*I *526:A2 I *D sky130_fd_sc_hd__o21ai_0
*I *448:A1 I *D sky130_fd_sc_hd__a21oi_1
*I *447:A2 I *D sky130_fd_sc_hd__o21ai_0
*I *471:A1 I *D sky130_fd_sc_hd__a21oi_1
*I *470:A2 I *D sky130_fd_sc_hd__o21ai_0
*I *497:A2 I *D sky130_fd_sc_hd__o21ai_0
*I *498:A1 I *D sky130_fd_sc_hd__a21oi_1
*I *400:A1 I *D sky130_fd_sc_hd__a21oi_1
*I *390:A1 I *D sky130_fd_sc_hd__a31o_1
*I *389:A I *D sky130_fd_sc_hd__nand2_1
*I *427:A1 I *D sky130_fd_sc_hd__a21oi_1
*I *708:A1 I *D sky130_fd_sc_hd__a21oi_1
*I *707:A2 I *D sky130_fd_sc_hd__o21ai_0
*CAP
1 en 0.0010233
2 *717:C 8.25679e-05
3 *713:B 0
4 *712:A1 0
5 *426:A2 5.86104e-05
6 *412:A1 2.94948e-05
7 *702:A1 0
8 *701:A2 0.000145456
9 *689:A1 0
10 *688:A2 0.000104386
11 *411:A2 0
12 *399:A2 0.000162141
13 *672:A1 8.17123e-05
14 *671:A2 1.6043e-05
15 *649:A2 2.56688e-05
16 *650:A1 4.23535e-05
17 *622:A2 5.73555e-05
18 *623:A1 0
19 *592:A2 1.54013e-05
20 *593:A1 2.94751e-05
21 *561:A2 0
22 *562:A1 0
23 *527:A1 0
24 *526:A2 0
25 *448:A1 0
26 *447:A2 0.000139467
27 *471:A1 0
28 *470:A2 8.32096e-05
29 *497:A2 0.000245625
30 *498:A1 0.000165957
31 *400:A1 0
32 *390:A1 0.000150173
33 *389:A 0.000159564
34 *427:A1 0
35 *708:A1 0.000125805
36 *707:A2 6.50276e-05
37 *381:426 0.000198425
38 *381:379 0.000341813
39 *381:359 0.000176747
40 *381:355 0.00080605
41 *381:349 0.000861651
42 *381:338 0.000652903
43 *381:307 0.00011829
44 *381:223 0.000505084
45 *381:201 0.000137756
46 *381:195 0.000652975
47 *381:174 0.000641622
48 *381:163 0.000570001
49 *381:155 0.00034225
50 *381:153 0.000496877
51 *381:139 0.000481048
52 *381:135 0.000501127
53 *381:123 0.000510067
54 *381:119 0.00045177
55 *381:111 0.000430331
56 *381:107 0.000518917
57 *381:103 0.000584141
58 *381:99 0.000477922
59 *381:95 0.00117957
60 *381:88 0.000930707
61 *381:68 0.000332411
62 *381:66 0.000396037
63 *381:58 0.000560518
64 *381:56 0.00058607
65 *381:45 0.000311855
66 *381:41 0.000312731
67 *381:21 0.000567736
68 *381:19 0.000777199
69 *381:15 0.000348511
70 *381:13 0.00114791
71 *389:A *382:54 0
72 *399:A2 *382:46 0
73 *426:A2 *383:143 0
74 *447:A2 *472:A1 0
75 *701:A2 *703:A1 0
76 *708:A1 *709:A1 0
77 *717:C *743:RESET_B 0
78 *381:13 out[19] 0
79 *381:19 *710:A 0
80 *381:19 *383:122 0
81 *381:56 *383:143 0
82 *381:58 *382:46 0
83 *381:95 *673:A1 0
84 *381:107 *383:21 0
85 *381:119 *383:21 0
86 *381:119 *383:39 0
87 *381:153 *383:178 0
88 *381:155 *382:66 0
89 *381:155 *382:156 0
90 *381:163 *382:66 0
91 *381:223 *472:A1 0
92 *381:355 *413:A1 0
93 *381:355 *383:267 0
94 *381:426 *743:RESET_B 0
95 out[10] *622:A2 0
96 out[10] *381:111 0
97 out[12] *381:153 0
98 out[3] *381:355 0
99 out[4] *708:A1 0
100 out[8] *381:13 0
101 out[8] *381:15 0
102 out[8] *381:19 0
103 *389:B *389:A 0
104 *390:A2 *389:A 0
105 *390:A2 *390:A1 0
106 *390:A3 *389:A 0
107 *390:A3 *390:A1 0
108 *395:B1 *381:95 0
109 *395:B2 *381:95 0
110 *396:A *390:A1 0
111 *396:A *381:88 0
112 *396:A *381:95 0
113 *396:SLEEP *390:A1 0
114 *397:A *381:66 0
115 *397:B *381:66 0
116 *397:B *381:95 0
117 *398:B *399:A2 0
118 *398:B *381:95 0
119 *399:A1 *399:A2 0
120 *399:B1 *399:A2 0
121 *400:A2 *381:66 0
122 *400:B1 *381:88 0
123 *400:B1 *381:95 0
124 *401:B1 *381:88 0
125 *402:B *381:95 0
126 *402:C *381:95 0
127 *410:A *381:95 0
128 *410:B *381:95 0
129 *411:B1 *381:349 0
130 *412:B1 *412:A1 0
131 *412:B1 *381:349 0
132 *426:A1 *426:A2 0
133 *427:A2 *426:A2 0
134 *427:A2 *381:45 0
135 *427:A2 *381:56 0
136 *427:B1 *381:45 0
137 *428:B1 *381:19 0
138 *447:A1 *447:A2 0
139 *447:A1 *381:223 0
140 *447:B1 *381:195 0
141 *447:B1 *381:223 0
142 *448:A2 *381:223 0
143 *448:B1 *447:A2 0
144 *449:B1 *447:A2 0
145 *449:B1 *381:223 0
146 *470:B1 *381:223 0
147 *471:A2 *470:A2 0
148 *471:A2 *381:195 0
149 *471:A2 *381:201 0
150 *471:B1 *470:A2 0
151 *472:B1 *447:A2 0
152 *497:A1 *497:A2 0
153 *497:B1 *497:A2 0
154 *497:B1 *381:174 0
155 *498:B1 *498:A1 0
156 *499:B1 *498:A1 0
157 *526:A1 *381:155 0
158 *526:A1 *381:163 0
159 *526:B1 *381:155 0
160 *527:B1 *381:155 0
161 *528:B1 *381:155 0
162 *528:B1 *381:163 0
163 *559:A *381:135 0
164 *562:B1 *381:139 0
165 *592:A1 *381:119 0
166 *592:A1 *381:123 0
167 *593:A2 *593:A1 0
168 *593:A2 *381:135 0
169 *593:B1 *381:123 0
170 *621:A *381:107 0
171 *621:C *381:107 0
172 *622:B1 *381:107 0
173 *623:A2 *381:107 0
174 *623:B1 *622:A2 0
175 *623:B1 *381:111 0
176 *623:B1 *381:119 0
177 *624:A2 *622:A2 0
178 *624:B1 *381:119 0
179 *625:A *650:A1 0
180 *625:A *381:107 0
181 *625:B *650:A1 0
182 *625:B *381:107 0
183 *647:A *381:103 0
184 *650:B1 *650:A1 0
185 *650:B1 *381:103 0
186 *651:B1 *381:107 0
187 *672:A2 *381:307 0
188 *672:B1 *672:A1 0
189 *673:A2 *381:99 0
190 *673:B1 *671:A2 0
191 *673:B1 *672:A1 0
192 *673:B1 *381:95 0
193 *673:B1 *381:307 0
194 *687:A *381:359 0
195 *688:B1 *688:A2 0
196 *689:B1 *688:A2 0
197 *701:B1 *701:A2 0
198 *702:A2 *381:379 0
199 *702:B1 *701:A2 0
200 *703:B1 *701:A2 0
201 *704:B *381:379 0
202 *706:C *381:21 0
203 *707:B1 *707:A2 0
204 *707:B1 *381:21 0
205 *713:A *381:19 0
206 *713:C *381:426 0
207 *715:A1 *381:13 0
208 *715:B1 *717:C 0
209 *715:B1 *381:13 0
210 *716:B *717:C 0
211 *716:B *381:13 0
212 *716:B *381:15 0
213 *716:B *381:19 0
214 *717:D *717:C 0
215 *733:D *381:174 0
216 *738:D *381:95 0
217 *748:A *381:338 0
218 *44:14 *470:A2 0
219 *44:14 *381:201 0
220 *154:10 *381:135 0
221 *213:10 *381:103 0
222 *276:12 *381:359 0
223 *276:12 *381:379 0
224 *288:20 *701:A2 0
225 *288:20 *381:379 0
226 *294:18 *381:19 0
227 *294:18 *381:426 0
228 *307:10 *390:A1 0
229 *307:10 *381:66 0
230 *307:31 *381:66 0
231 *310:12 *381:359 0
232 *310:12 *381:379 0
233 *310:22 *381:99 0
234 *310:59 *381:349 0
235 *310:65 *381:338 0
236 *310:97 *381:153 0
237 *310:140 *497:A2 0
238 *310:159 *381:195 0
239 *310:224 *381:56 0
240 *310:224 *381:58 0
241 *314:10 *381:95 0
242 *325:12 *381:95 0
243 *330:14 *399:A2 0
244 *330:14 *381:45 0
245 *341:15 *381:95 0
246 *345:11 *381:56 0
247 *345:11 *381:58 0
248 *345:11 *381:66 0
249 *349:29 *389:A 0
250 *350:56 *381:103 0
251 *351:14 *381:99 0
252 *352:37 *672:A1 0
253 *353:28 *688:A2 0
254 *354:12 *701:A2 0
255 *354:30 *701:A2 0
256 *354:66 *701:A2 0
257 *354:66 *381:379 0
258 *355:16 *707:A2 0
259 *355:22 *498:A1 0
260 *355:22 *381:174 0
261 *355:22 *381:195 0
262 *355:22 *381:223 0
263 *356:14 *717:C 0
264 *356:18 *717:C 0
265 *356:18 *381:426 0
266 *357:32 *381:19 0
267 *357:32 *381:135 0
268 *359:8 *399:A2 0
269 *359:17 *399:A2 0
270 *359:21 *381:66 0
271 *360:12 *412:A1 0
272 *360:12 *381:349 0
273 *361:28 *426:A2 0
274 *361:28 *381:21 0
275 *361:28 *381:41 0
276 *363:12 *497:A2 0
277 *363:12 *381:174 0
278 *365:10 *381:153 0
279 *365:79 *381:119 0
280 *365:79 *381:123 0
281 *365:79 *381:135 0
282 *366:22 *381:135 0
283 *368:80 *593:A1 0
284 *368:80 *381:135 0
285 *369:13 *672:A1 0
286 *369:13 *381:95 0
287 *373:11 *707:A2 0
288 *373:11 *381:21 0
289 *373:19 *381:21 0
290 *373:19 *381:41 0
291 *377:9 *688:A2 0
292 *377:9 *381:45 0
293 *377:9 *381:56 0
294 *377:9 *381:338 0
295 *377:9 *381:349 0
296 *377:9 *381:355 0
297 *379:22 *497:A2 0
298 *379:22 *381:163 0
299 *379:26 *497:A2 0
300 *380:42 *381:349 0
*RES
1 en *381:13 31.5089 
2 *381:13 *381:15 0.276786 
3 *381:15 *381:19 12.2143 
4 *381:19 *381:21 7.92857 
5 *381:21 *707:A2 10.6571 
6 *381:21 *708:A1 21.1571 
7 *381:19 *381:41 1.35714 
8 *381:41 *381:45 4.14286 
9 *381:45 *427:A1 9.3 
10 *381:45 *381:56 7.19643 
11 *381:56 *381:58 2.55357 
12 *381:58 *381:66 11.0536 
13 *381:66 *381:68 0.535714 
14 *381:68 *389:A 13.1393 
15 *381:68 *390:A1 12.6036 
16 *381:66 *381:88 1.76786 
17 *381:88 *400:A1 9.3 
18 *381:88 *381:95 17.7857 
19 *381:95 *381:99 11.6071 
20 *381:99 *381:103 7.66071 
21 *381:103 *381:107 12.8393 
22 *381:107 *381:111 5.83929 
23 *381:111 *381:119 7.98214 
24 *381:119 *381:123 5.85714 
25 *381:123 *381:135 22.3571 
26 *381:135 *381:139 1.78571 
27 *381:139 *381:153 17.7178 
28 *381:153 *381:155 2.17857 
29 *381:155 *381:163 9.58928 
30 *381:163 *498:A1 17.5679 
31 *381:163 *381:174 3.76786 
32 *381:174 *497:A2 27.9964 
33 *381:174 *381:195 5.28571 
34 *381:195 *381:201 5.875 
35 *381:201 *470:A2 11.2732 
36 *381:201 *471:A1 9.3 
37 *381:195 *381:223 12.9107 
38 *381:223 *447:A2 12.2107 
39 *381:223 *448:A1 9.3 
40 *381:155 *526:A2 9.3 
41 *381:153 *527:A1 9.3 
42 *381:139 *562:A1 9.3 
43 *381:135 *561:A2 9.3 
44 *381:123 *593:A1 14.5321 
45 *381:119 *592:A2 9.72857 
46 *381:111 *623:A1 9.3 
47 *381:107 *622:A2 15.0857 
48 *381:103 *650:A1 10.2464 
49 *381:99 *649:A2 14.3357 
50 *381:95 *381:307 0.428571 
51 *381:307 *671:A2 9.83571 
52 *381:307 *672:A1 11.0679 
53 *381:58 *399:A2 17.1214 
54 *381:56 *381:338 12.0357 
55 *381:338 *411:A2 9.3 
56 *381:338 *381:349 10.7857 
57 *381:349 *381:355 20.2143 
58 *381:355 *381:359 6.14286 
59 *381:359 *688:A2 11.4786 
60 *381:359 *689:A1 9.3 
61 *381:355 *381:379 9.33928 
62 *381:379 *701:A2 12.3357 
63 *381:379 *702:A1 9.3 
64 *381:349 *412:A1 14.5321 
65 *381:41 *426:A2 10.6571 
66 *381:15 *712:A1 13.8 
67 *381:13 *381:426 7.08036 
68 *381:426 *713:B 9.3 
69 *381:426 *717:C 11.0857 
*END

*D_NET *382 0.018207
*CONN
*P rst_n I
*I *745:RESET_B I *D sky130_fd_sc_hd__dfrtp_1
*I *744:RESET_B I *D sky130_fd_sc_hd__dfrtp_1
*I *740:RESET_B I *D sky130_fd_sc_hd__dfrtp_1
*I *739:RESET_B I *D sky130_fd_sc_hd__dfrtp_1
*I *738:RESET_B I *D sky130_fd_sc_hd__dfrtp_1
*I *737:RESET_B I *D sky130_fd_sc_hd__dfrtp_1
*I *736:RESET_B I *D sky130_fd_sc_hd__dfrtp_1
*I *728:RESET_B I *D sky130_fd_sc_hd__dfrtp_1
*I *727:RESET_B I *D sky130_fd_sc_hd__dfrtp_1
*I *726:RESET_B I *D sky130_fd_sc_hd__dfrtp_1
*I *735:RESET_B I *D sky130_fd_sc_hd__dfrtp_1
*I *734:RESET_B I *D sky130_fd_sc_hd__dfrtp_1
*I *733:RESET_B I *D sky130_fd_sc_hd__dfrtp_1
*I *742:RESET_B I *D sky130_fd_sc_hd__dfrtp_1
*I *743:RESET_B I *D sky130_fd_sc_hd__dfrtp_1
*I *741:RESET_B I *D sky130_fd_sc_hd__dfrtp_1
*I *730:RESET_B I *D sky130_fd_sc_hd__dfrtp_1
*I *731:RESET_B I *D sky130_fd_sc_hd__dfrtp_1
*I *732:RESET_B I *D sky130_fd_sc_hd__dfrtp_1
*I *729:RESET_B I *D sky130_fd_sc_hd__dfrtp_1
*CAP
1 rst_n 0.000623913
2 *745:RESET_B 0.000460398
3 *744:RESET_B 3.16582e-05
4 *740:RESET_B 0.000102247
5 *739:RESET_B 0
6 *738:RESET_B 0
7 *737:RESET_B 8.40653e-05
8 *736:RESET_B 9.98457e-05
9 *728:RESET_B 6.17424e-05
10 *727:RESET_B 0
11 *726:RESET_B 1.96794e-05
12 *735:RESET_B 0.000437332
13 *734:RESET_B 2.40645e-05
14 *733:RESET_B 3.507e-05
15 *742:RESET_B 1.45456e-05
16 *743:RESET_B 0.000484017
17 *741:RESET_B 4.23535e-05
18 *730:RESET_B 0.000899372
19 *731:RESET_B 0
20 *732:RESET_B 5.23041e-05
21 *729:RESET_B 0.00101382
22 *382:256 0.000506388
23 *382:210 0.000592906
24 *382:204 0.000649279
25 *382:200 0.000510457
26 *382:196 0.00053285
27 *382:156 0.000808139
28 *382:118 0.00123269
29 *382:104 0.00106278
30 *382:85 0.00106651
31 *382:76 0.000835863
32 *382:66 0.000566278
33 *382:64 0.00110104
34 *382:54 0.00111684
35 *382:46 0.00107169
36 *382:21 0.00068857
37 *382:19 0.000520622
38 *382:15 0.000857686
39 *729:RESET_B *383:158 0
40 *735:RESET_B *383:39 0
41 *735:RESET_B *383:41 0
42 *736:RESET_B *383:221 0
43 *745:RESET_B *383:282 0
44 *382:46 *401:A1 0
45 *382:76 *392:B2 0
46 *382:76 *499:A1 0
47 *382:104 *709:A1 0
48 *382:210 *383:232 0
49 out[12] *382:76 0
50 out[14] *382:104 0
51 out[8] *382:64 0
52 *386:A *382:15 0
53 *389:A *382:54 0
54 *389:B *382:54 0
55 *392:A1 *382:54 0
56 *392:A2 *382:54 0
57 *392:A3 *726:RESET_B 0
58 *392:A3 *382:54 0
59 *392:A3 *382:64 0
60 *398:B *382:46 0
61 *399:A2 *382:46 0
62 *399:B1 *382:46 0
63 *401:A2 *382:54 0
64 *401:B1 *382:46 0
65 *423:A *382:64 0
66 *423:B *382:64 0
67 *447:A1 *730:RESET_B 0
68 *447:B1 *730:RESET_B 0
69 *447:B1 *382:85 0
70 *450:B *382:64 0
71 *527:B1 *382:66 0
72 *709:B1 *741:RESET_B 0
73 *713:C *743:RESET_B 0
74 *714:A *743:RESET_B 0
75 *714:B *743:RESET_B 0
76 *715:A2 *382:118 0
77 *715:B1 *743:RESET_B 0
78 *715:B1 *382:118 0
79 *717:C *743:RESET_B 0
80 *717:D *743:RESET_B 0
81 *723:A2 *729:RESET_B 0
82 *724:B1 *744:RESET_B 0
83 *724:B1 *382:19 0
84 *725:B1 *382:15 0
85 *725:B1 *382:19 0
86 *726:CLK *382:64 0
87 *726:D *382:64 0
88 *729:CLK *382:46 0
89 *730:CLK *730:RESET_B 0
90 *731:CLK *730:RESET_B 0
91 *731:CLK *382:85 0
92 *731:D *730:RESET_B 0
93 *732:CLK *732:RESET_B 0
94 *732:CLK *382:85 0
95 *732:D *732:RESET_B 0
96 *732:D *382:85 0
97 *734:CLK *382:66 0
98 *734:CLK *382:156 0
99 *734:D *382:156 0
100 *735:CLK *735:RESET_B 0
101 *735:D *735:RESET_B 0
102 *737:D *736:RESET_B 0
103 *737:D *737:RESET_B 0
104 *738:D *382:210 0
105 *739:D *382:204 0
106 *740:CLK *729:RESET_B 0
107 *740:CLK *382:21 0
108 *740:CLK *382:196 0
109 *740:D *740:RESET_B 0
110 *740:D *382:200 0
111 *741:D *382:104 0
112 *742:CLK *382:118 0
113 *742:D *382:118 0
114 *743:CLK *743:RESET_B 0
115 *743:D *743:RESET_B 0
116 *40:8 *382:64 0
117 *61:12 *732:RESET_B 0
118 *61:12 *382:85 0
119 *288:20 *729:RESET_B 0
120 *288:20 *382:21 0
121 *288:20 *382:196 0
122 *299:14 *729:RESET_B 0
123 *310:10 *745:RESET_B 0
124 *310:85 *382:64 0
125 *310:224 *729:RESET_B 0
126 *310:224 *382:46 0
127 *310:276 *728:RESET_B 0
128 *310:276 *382:19 0
129 *330:14 *382:46 0
130 *337:8 *382:64 0
131 *339:10 *382:64 0
132 *341:15 *745:RESET_B 0
133 *341:15 *382:200 0
134 *341:15 *382:204 0
135 *341:15 *382:210 0
136 *342:15 *729:RESET_B 0
137 *342:15 *741:RESET_B 0
138 *342:15 *382:118 0
139 *345:11 *743:RESET_B 0
140 *350:10 *736:RESET_B 0
141 *350:10 *737:RESET_B 0
142 *354:30 *382:104 0
143 *355:22 *382:104 0
144 *356:14 *743:RESET_B 0
145 *357:32 *382:46 0
146 *357:32 *382:54 0
147 *358:10 *744:RESET_B 0
148 *358:10 *382:15 0
149 *359:72 *745:RESET_B 0
150 *359:72 *382:15 0
151 *359:72 *382:19 0
152 *359:72 *382:200 0
153 *360:12 *382:200 0
154 *360:12 *382:204 0
155 *363:10 *382:85 0
156 *365:10 *382:156 0
157 *365:55 *735:RESET_B 0
158 *365:55 *382:156 0
159 *366:6 *735:RESET_B 0
160 *366:10 *734:RESET_B 0
161 *366:10 *735:RESET_B 0
162 *366:10 *382:156 0
163 *373:11 *730:RESET_B 0
164 *373:19 *382:46 0
165 *373:19 *382:54 0
166 *377:9 *382:46 0
167 *379:12 *382:64 0
168 *379:22 *733:RESET_B 0
169 *379:22 *382:66 0
170 *379:79 *730:RESET_B 0
171 *379:90 *730:RESET_B 0
172 *379:90 *382:104 0
173 *380:10 *729:RESET_B 0
174 *380:10 *382:46 0
175 *380:25 *729:RESET_B 0
176 *380:46 *382:204 0
177 *380:46 *382:210 0
178 *380:48 *382:210 0
179 *380:56 *736:RESET_B 0
180 *380:56 *382:210 0
181 *380:103 *728:RESET_B 0
182 *381:58 *382:46 0
183 *381:155 *382:66 0
184 *381:155 *382:156 0
185 *381:163 *382:66 0
186 *381:426 *743:RESET_B 0
*RES
1 rst_n *382:15 14.9286 
2 *382:15 *382:19 9.48214 
3 *382:19 *382:21 3 
4 *382:21 *729:RESET_B 19.5536 
5 *729:RESET_B *382:46 24.9554 
6 *382:46 *382:54 16.5893 
7 *382:54 *382:64 21.1607 
8 *382:64 *382:66 4.23214 
9 *382:66 *382:76 12.7248 
10 *382:76 *732:RESET_B 5.6875 
11 *382:76 *382:85 10.2946 
12 *382:85 *731:RESET_B 4.5 
13 *382:85 *730:RESET_B 17.9375 
14 *730:RESET_B *382:104 11 
15 *382:104 *741:RESET_B 5.38393 
16 *382:104 *382:118 20.3125 
17 *382:118 *743:RESET_B 19.5179 
18 *382:118 *742:RESET_B 0.446429 
19 *382:66 *733:RESET_B 0.901786 
20 *382:64 *382:156 7.26786 
21 *382:156 *734:RESET_B 0.901786 
22 *382:156 *735:RESET_B 9.24107 
23 *382:54 *726:RESET_B 0.473214 
24 *382:46 *727:RESET_B 4.5 
25 *382:21 *728:RESET_B 10.3393 
26 *382:19 *382:196 3.41071 
27 *382:196 *382:200 10.6964 
28 *382:200 *382:204 5.51786 
29 *382:204 *382:210 9.28571 
30 *382:210 *736:RESET_B 6.72321 
31 *382:210 *737:RESET_B 6.34821 
32 *382:204 *738:RESET_B 4.5 
33 *382:200 *739:RESET_B 4.5 
34 *382:196 *740:RESET_B 2.25893 
35 *382:15 *382:256 4.83036 
36 *382:256 *744:RESET_B 0.696428 
37 *382:256 *745:RESET_B 18.9554 
*END

*D_NET *383 0.0208393
*CONN
*P scan_en I
*I *391:B I *D sky130_fd_sc_hd__nor2_1
*I *725:A1 I *D sky130_fd_sc_hd__a22o_1
*I *703:A1 I *D sky130_fd_sc_hd__a21o_1
*I *413:A1 I *D sky130_fd_sc_hd__a21o_1
*I *690:A1 I *D sky130_fd_sc_hd__a21o_1
*I *673:A1 I *D sky130_fd_sc_hd__a21o_1
*I *651:A1 I *D sky130_fd_sc_hd__a21o_1
*I *624:A1 I *D sky130_fd_sc_hd__a21o_1
*I *594:A1 I *D sky130_fd_sc_hd__a21o_1
*I *563:A1 I *D sky130_fd_sc_hd__a21o_1
*I *528:A1 I *D sky130_fd_sc_hd__a21o_1
*I *499:A1 I *D sky130_fd_sc_hd__a21o_1
*I *718:B2 I *D sky130_fd_sc_hd__a32o_1
*I *719:A I *D sky130_fd_sc_hd__nand2_1
*I *428:A1 I *D sky130_fd_sc_hd__a21o_1
*I *710:A I *D sky130_fd_sc_hd__nand2_1
*I *709:A1 I *D sky130_fd_sc_hd__a21o_1
*I *449:A1 I *D sky130_fd_sc_hd__a21o_1
*I *472:A1 I *D sky130_fd_sc_hd__a21o_1
*I *401:A1 I *D sky130_fd_sc_hd__a21o_1
*I *392:B1 I *D sky130_fd_sc_hd__a32o_1
*CAP
1 scan_en 0.00200879
2 *391:B 0.000141606
3 *725:A1 0.000440567
4 *703:A1 4.62038e-05
5 *413:A1 0.000340539
6 *690:A1 0
7 *673:A1 6.50276e-05
8 *651:A1 2.56688e-05
9 *624:A1 0
10 *594:A1 0
11 *563:A1 0
12 *528:A1 3.88938e-05
13 *499:A1 0.00031589
14 *718:B2 0.000105242
15 *719:A 0
16 *428:A1 2.0535e-05
17 *710:A 0.000387458
18 *709:A1 0.000329123
19 *449:A1 3.50807e-05
20 *472:A1 0.000324241
21 *401:A1 0.000157863
22 *392:B1 7.48673e-05
23 *383:282 0.000999426
24 *383:267 0.000663329
25 *383:254 0.000742352
26 *383:243 0.000445371
27 *383:232 0.000565259
28 *383:221 0.000435057
29 *383:178 0.000878651
30 *383:158 0.000496437
31 *383:143 0.000790344
32 *383:122 0.00107596
33 *383:81 0.000381996
34 *383:79 0.000870306
35 *383:71 0.000938122
36 *383:56 0.000617982
37 *383:45 0.000700904
38 *383:43 0.000799505
39 *383:41 0.000343534
40 *383:39 0.000850714
41 *383:21 0.000866115
42 *383:9 0.00252031
43 *391:B *385:6 0
44 *391:B *385:43 0
45 *725:A1 *385:6 0
46 *383:45 *392:B2 0
47 *383:56 *392:B2 0
48 *383:178 *392:B2 0
49 out[12] *499:A1 0
50 out[12] *383:9 0
51 out[12] *383:178 0
52 out[12] *383:221 0
53 out[12] *383:232 0
54 out[12] *383:243 0
55 out[14] *709:A1 0
56 out[16] *710:A 0
57 out[18] *391:B 0
58 out[18] *725:A1 0
59 out[3] *413:A1 0
60 out[3] *383:267 0
61 out[4] *709:A1 0
62 out[8] *710:A 0
63 *386:A *725:A1 0
64 *389:B *401:A1 0
65 *392:A1 *383:56 0
66 *392:A2 *392:B1 0
67 *398:B *401:A1 0
68 *401:B1 *401:A1 0
69 *412:A2 *413:A1 0
70 *426:A1 *383:143 0
71 *426:A2 *383:143 0
72 *426:B1 *383:122 0
73 *427:A2 *383:122 0
74 *427:A2 *383:143 0
75 *428:A2 *383:158 0
76 *428:B1 *383:122 0
77 *428:B1 *383:143 0
78 *429:B *383:71 0
79 *429:B *383:79 0
80 *429:B *383:122 0
81 *447:A2 *472:A1 0
82 *447:B1 *472:A1 0
83 *448:A2 *472:A1 0
84 *449:A2 *449:A1 0
85 *449:A2 *383:79 0
86 *449:A2 *383:81 0
87 *449:B1 *449:A1 0
88 *472:A2 *472:A1 0
89 *472:B1 *472:A1 0
90 *482:B *383:9 0
91 *499:B1 *499:A1 0
92 *503:A *383:9 0
93 *503:C *383:9 0
94 *513:A *383:9 0
95 *514:C *383:9 0
96 *531:A *383:9 0
97 *531:B *383:9 0
98 *531:C *383:9 0
99 *551:C *383:9 0
100 *552:B *383:9 0
101 *553:A *383:9 0
102 *562:B1 *383:41 0
103 *565:B1_N *383:9 0
104 *590:B *383:9 0
105 *591:C *383:9 0
106 *592:A1 *383:39 0
107 *593:B1 *383:39 0
108 *594:A2 *383:39 0
109 *594:A2 *383:41 0
110 *594:B1 *383:39 0
111 *621:C *383:9 0
112 *622:B1 *383:21 0
113 *623:B1 *383:21 0
114 *624:A2 *383:21 0
115 *624:A2 *383:39 0
116 *624:B1 *383:39 0
117 *701:A1 *383:267 0
118 *701:A2 *703:A1 0
119 *703:A2 *383:254 0
120 *703:A2 *383:267 0
121 *703:A2 *383:282 0
122 *703:B1 *383:267 0
123 *706:C *710:A 0
124 *706:C *383:143 0
125 *708:A1 *709:A1 0
126 *710:B *710:A 0
127 *718:A2 *718:B2 0
128 *718:B1 *718:B2 0
129 *719:B *718:B2 0
130 *724:A3 *718:B2 0
131 *725:A2 *725:A1 0
132 *727:CLK *383:79 0
133 *727:D *401:A1 0
134 *727:D *383:79 0
135 *729:CLK *383:143 0
136 *729:CLK *383:158 0
137 *729:D *383:143 0
138 *729:RESET_B *383:158 0
139 *730:D *472:A1 0
140 *734:D *383:45 0
141 *735:RESET_B *383:39 0
142 *735:RESET_B *383:41 0
143 *736:RESET_B *383:221 0
144 *737:D *383:232 0
145 *743:CLK *718:B2 0
146 *745:CLK *725:A1 0
147 *745:D *725:A1 0
148 *745:RESET_B *383:282 0
149 *69:10 *383:9 0
150 *75:10 *383:9 0
151 *77:8 *383:9 0
152 *95:12 *383:9 0
153 *108:10 *383:9 0
154 *121:12 *383:9 0
155 *144:14 *383:9 0
156 *146:16 *383:9 0
157 *155:10 *383:9 0
158 *184:16 *383:9 0
159 *288:20 *703:A1 0
160 *288:20 *383:143 0
161 *288:20 *383:158 0
162 *289:30 *383:143 0
163 *299:10 *718:B2 0
164 *299:38 *383:158 0
165 *305:14 *383:158 0
166 *310:10 *391:B 0
167 *310:10 *383:282 0
168 *310:18 *383:243 0
169 *310:18 *383:254 0
170 *310:77 *383:79 0
171 *310:79 *383:56 0
172 *310:79 *383:71 0
173 *310:81 *383:45 0
174 *310:85 *383:45 0
175 *310:224 *383:158 0
176 *324:10 *392:B1 0
177 *338:10 *528:A1 0
178 *341:15 *725:A1 0
179 *341:15 *383:232 0
180 *341:15 *383:243 0
181 *341:15 *383:254 0
182 *341:15 *383:267 0
183 *341:15 *383:282 0
184 *341:42 *383:39 0
185 *342:17 *383:158 0
186 *350:10 *383:21 0
187 *350:41 *651:A1 0
188 *352:8 *383:243 0
189 *352:10 *383:243 0
190 *355:22 *472:A1 0
191 *355:22 *528:A1 0
192 *357:12 *383:158 0
193 *357:20 *383:158 0
194 *357:32 *383:122 0
195 *358:10 *725:A1 0
196 *361:18 *383:122 0
197 *361:28 *710:A 0
198 *361:28 *383:122 0
199 *361:36 *383:79 0
200 *362:8 *709:A1 0
201 *362:31 *472:A1 0
202 *362:31 *383:81 0
203 *363:20 *499:A1 0
204 *364:16 *499:A1 0
205 *367:10 *383:39 0
206 *369:13 *673:A1 0
207 *369:21 *383:39 0
208 *371:80 *383:9 0
209 *373:19 *383:45 0
210 *373:19 *383:56 0
211 *373:19 *383:71 0
212 *373:19 *383:122 0
213 *375:42 *383:9 0
214 *377:9 *413:A1 0
215 *379:79 *472:A1 0
216 *379:79 *709:A1 0
217 *379:79 *383:79 0
218 *380:25 *383:158 0
219 *381:19 *710:A 0
220 *381:19 *383:122 0
221 *381:56 *383:143 0
222 *381:95 *673:A1 0
223 *381:107 *383:21 0
224 *381:119 *383:21 0
225 *381:119 *383:39 0
226 *381:153 *383:178 0
227 *381:223 *472:A1 0
228 *381:355 *413:A1 0
229 *381:355 *383:267 0
230 *382:46 *401:A1 0
231 *382:76 *499:A1 0
232 *382:104 *709:A1 0
233 *382:210 *383:232 0
*RES
1 scan_en *383:9 45.6071 
2 *383:9 *383:21 12.3036 
3 *383:21 *383:39 28.9643 
4 *383:39 *383:41 7.10714 
5 *383:41 *383:43 4.5 
6 *383:43 *383:45 6.19643 
7 *383:45 *392:B1 15.3625 
8 *383:45 *383:56 8.01786 
9 *383:56 *401:A1 17.2464 
10 *383:56 *383:71 2.55357 
11 *383:71 *383:79 15.4464 
12 *383:79 *383:81 0.535714 
13 *383:81 *472:A1 25.2107 
14 *383:81 *449:A1 10.0321 
15 *383:79 *709:A1 25.7107 
16 *383:71 *383:122 11.6607 
17 *383:122 *710:A 26.9071 
18 *383:122 *383:143 7.96428 
19 *383:143 *428:A1 9.72857 
20 *383:143 *383:158 17.7679 
21 *383:158 *719:A 9.3 
22 *383:158 *718:B2 11.4964 
23 *383:43 *383:178 5.33074 
24 *383:178 *499:A1 20.2187 
25 *383:178 *528:A1 18.0939 
26 *383:41 *563:A1 9.3 
27 *383:39 *594:A1 9.3 
28 *383:21 *624:A1 9.3 
29 *383:9 *383:221 3.46429 
30 *383:221 *651:A1 14.3357 
31 *383:221 *383:232 5.89286 
32 *383:232 *673:A1 15.1571 
33 *383:232 *383:243 5.58928 
34 *383:243 *690:A1 13.8 
35 *383:243 *383:254 9.17857 
36 *383:254 *413:A1 16.4071 
37 *383:254 *383:267 9.01786 
38 *383:267 *703:A1 14.7643 
39 *383:267 *383:282 14.0357 
40 *383:282 *725:A1 27.4964 
41 *383:282 *391:B 12.3179 
*END

*D_NET *384 0.00275596
*CONN
*P scan_in I
*I *392:B2 I *D sky130_fd_sc_hd__a32o_1
*CAP
1 scan_in 0.00137798
2 *392:B2 0.00137798
3 *392:A1 *392:B2 0
4 *392:A2 *392:B2 0
5 *392:A3 *392:B2 0
6 *310:81 *392:B2 0
7 *382:76 *392:B2 0
8 *383:45 *392:B2 0
9 *383:56 *392:B2 0
10 *383:178 *392:B2 0
*RES
1 scan_in *392:B2 25.3346 
*END

*D_NET *385 0.0123814
*CONN
*P scan_out O
*P out[19] O
*I *387:A I *D sky130_fd_sc_hd__clkinv_1
*I *745:Q O *D sky130_fd_sc_hd__dfrtp_1
*CAP
1 scan_out 0.00101832
2 out[19] 0.00183521
3 *387:A 0
4 *745:Q 0
5 *385:47 0.00297752
6 *385:43 0.00264541
7 *385:6 0.00252699
8 *385:4 0.00137799
9 out[11] *385:47 0
10 out[18] *385:43 0
11 out[3] *385:47 0
12 out[4] out[19] 0
13 *386:A *385:6 0
14 *391:A *385:43 0
15 *391:B *385:6 0
16 *391:B *385:43 0
17 *580:B *385:47 0
18 *582:B *385:47 0
19 *626:A *385:47 0
20 *626:B *385:47 0
21 *642:B *385:47 0
22 *643:A *385:47 0
23 *653:A *385:47 0
24 *654:B *385:47 0
25 *658:B *385:47 0
26 *675:B *385:47 0
27 *679:B *385:47 0
28 *685:A *385:47 0
29 *685:B *385:47 0
30 *692:C *385:47 0
31 *714:A out[19] 0
32 *725:A1 *385:6 0
33 *725:B2 *385:6 0
34 *743:CLK out[19] 0
35 *745:CLK *385:6 0
36 *169:8 *385:47 0
37 *186:12 *385:47 0
38 *187:10 *385:47 0
39 *214:12 *385:47 0
40 *241:10 *385:47 0
41 *261:8 *385:47 0
42 *277:10 *385:47 0
43 *305:10 *385:6 0
44 *347:99 *385:47 0
45 *357:12 out[19] 0
46 *359:72 *385:43 0
47 *360:66 *385:47 0
48 *369:7 *385:47 0
49 *381:13 out[19] 0
*RES
1 *745:Q *385:4 9.3 
2 *385:4 *385:6 14.5 
3 *385:6 out[19] 43.6429 
4 *385:6 *387:A 9.3 
5 *385:4 *385:43 18.9464 
6 *385:43 *385:47 47.7046 
7 *385:47 scan_out 3.68794 
*END
